BEGIN IONS
CHARGE=1-
INCHIKEY=BGZZWXTVIYUUEY-UHFFFAOYSA-N
INSTRUMENT_TYPE=LC-ESI-QQ
INSTRUMENT=QuattroPremier XE, Waters
COLLISION_ENERGY=40 V
FORMULA=C15H10ClF3N2O6S
SMILES=O=N(=O)c(c2)c(cc(c2)Oc(c1)c(Cl)cc(c1)C(F)(F)F)C(=O)NS(C)(=O)=O
CAS=72178-02-0
INCHI=InChI=1S/C15H10ClF3N2O6S/c1-28(25,26)20-14(22)10-7-9(3-4-12(10)21(23)24)27-13-5-2-8(6-11(13)16)15(17,18)19/h2-7H,1H3,(H,20,22)
AUTHOR=Nihon Waters K.K.
LICENSE=CC BY-NC
SPLASH=splash10-0002-0930000000-f6c1e3c00e9dacd3547b
SUBMITTER=submitter = Nihon Waters (Nihon Waters K.K.)
SYNON_$=00in-source
COMPUTED_SMILES=O=N(=O)C1=CC=C(OC2=CC=C(C=C2CL)C(F)(F)F)C=C1C(O)=NS(=O)(=O)C
COMPUTED_[2M+H-H2O]+=858.9726687599999
COMPUTED_[2M+K]+=915.07833876
COMPUTED_[M+H]+=438.99798938
COMPUTED_[2M+NA]+=898.96980876
COMPUTED_[2M+CL]-=911.4330387599999
COMPUTED_[2M+HAC-H]-=935.02406876
COMPUTED_[M-H20-H]-=418.97162937999997
COMPUTED_[M-H]-=436.98274338
COMPUTED_[2M-H]-=874.9727627599999
COMPUTED_[M+NA]+=460.97978938
COMPUTED_[M+H-H2O]+=420.98264938
COMPUTED_[2M+NH4]+=894.01861876
COMPUTED_[M+CL]-=473.44301938
COMPUTED_[M+NH4]+=456.02859938
COMPUTED_[M+K]+=477.08831938
COMPUTED_[2M+H]+=876.98800876
COMPUTED_[M+HAC-H]-=497.03404938
FIND_PEAK=ignore rel.int. < 5
COMPUTED_SPECTRAL_ENTROPY=1.1807157861426067
COMPUTED_NORMALIZED_ENTROPY=0.4751549867047679
COMPUTED_MASS_ACCURACY=39.48883295197239
COMPUTED_MASS_ERROR=0.017256620000011935
MONA_RATING=4.545454545454546
NUM_PEAKS=12
COMPOUND_NAME=Fomesafen
SPECTRUM_ID=WA000264
ADDUCT=[M-H]-
MS_LEVEL=MS2
PRECURSOR_MZ=437.0
IONMODE=negative
NOMINAL_MASS=438
PARENT_MASS=437.99001938
RECORD_DATE=2016.01.19 (Created 2007.08.01, modified 2011.05.06)
107.0 0.035035039999999996
120.0 0.00800801
137.0 0.06706706999999999
138.0 0.00800801
175.0 0.04704705
182.0 0.01201201
189.0 0.00800801
195.0 1.0
202.0 0.00800801
207.0 0.01201201
222.0 0.45445445
286.0 0.01201201
END IONS

BEGIN IONS
CHARGE=1-
INCHIKEY=BGZZWXTVIYUUEY-UHFFFAOYSA-N
INSTRUMENT_TYPE=LC-ESI-QQ
INSTRUMENT=QuattroPremier XE, Waters
COLLISION_ENERGY=30 V
FORMULA=C15H10ClF3N2O6S
SMILES=O=N(=O)c(c2)c(cc(c2)Oc(c1)c(Cl)cc(c1)C(F)(F)F)C(=O)NS(C)(=O)=O
CAS=72178-02-0
INCHI=InChI=1S/C15H10ClF3N2O6S/c1-28(25,26)20-14(22)10-7-9(3-4-12(10)21(23)24)27-13-5-2-8(6-11(13)16)15(17,18)19/h2-7H,1H3,(H,20,22)
AUTHOR=Nihon Waters K.K.
LICENSE=CC BY-NC
SPLASH=splash10-0002-0960000000-bbf09b82821f9c8d89c4
SUBMITTER=submitter = Nihon Waters (Nihon Waters K.K.)
SYNON_$=00in-source
COMPUTED_SMILES=O=N(=O)C1=CC=C(OC2=CC=C(C=C2CL)C(F)(F)F)C=C1C(O)=NS(=O)(=O)C
COMPUTED_[2M+H-H2O]+=858.9726687599999
COMPUTED_[2M+K]+=915.07833876
COMPUTED_[M+H]+=438.99798938
COMPUTED_[2M+NA]+=898.96980876
COMPUTED_[2M+CL]-=911.4330387599999
COMPUTED_[2M+HAC-H]-=935.02406876
COMPUTED_[M-H20-H]-=418.97162937999997
COMPUTED_[M-H]-=436.98274338
COMPUTED_[2M-H]-=874.9727627599999
COMPUTED_[M+NA]+=460.97978938
COMPUTED_[M+H-H2O]+=420.98264938
COMPUTED_[2M+NH4]+=894.01861876
COMPUTED_[M+CL]-=473.44301938
COMPUTED_[M+NH4]+=456.02859938
COMPUTED_[M+K]+=477.08831938
COMPUTED_[2M+H]+=876.98800876
COMPUTED_[M+HAC-H]-=497.03404938
FIND_PEAK=ignore rel.int. < 5
COMPUTED_SPECTRAL_ENTROPY=1.5721959341937453
COMPUTED_NORMALIZED_ENTROPY=0.6129539866431151
COMPUTED_MASS_ACCURACY=39.48883295197239
COMPUTED_MASS_ERROR=0.017256620000011935
MONA_RATING=4.545454545454546
NUM_PEAKS=13
COMPOUND_NAME=Fomesafen
SPECTRUM_ID=WA000263
ADDUCT=[M-H]-
MS_LEVEL=MS2
PRECURSOR_MZ=437.0
IONMODE=negative
NOMINAL_MASS=438
PARENT_MASS=437.99001938
RECORD_DATE=2016.01.19 (Created 2007.08.01, modified 2011.05.06)
107.0 0.01201201
120.0 0.09009009000000001
137.0 0.09809810000000001
195.0 1.0
207.0 0.00800801
210.0 0.00800801
222.0 0.4984985
250.0 0.02002002
258.0 0.00800801
270.0 0.01201201
286.0 0.30630631
316.0 0.08608608999999999
437.0 0.01601602
END IONS

BEGIN IONS
CHARGE=1-
INCHIKEY=BGZZWXTVIYUUEY-UHFFFAOYSA-N
INSTRUMENT_TYPE=LC-ESI-QQ
INSTRUMENT=QuattroPremier XE, Waters
COLLISION_ENERGY=20 V
FORMULA=C15H10ClF3N2O6S
SMILES=O=N(=O)c(c2)c(cc(c2)Oc(c1)c(Cl)cc(c1)C(F)(F)F)C(=O)NS(C)(=O)=O
CAS=72178-02-0
INCHI=InChI=1S/C15H10ClF3N2O6S/c1-28(25,26)20-14(22)10-7-9(3-4-12(10)21(23)24)27-13-5-2-8(6-11(13)16)15(17,18)19/h2-7H,1H3,(H,20,22)
AUTHOR=Nihon Waters K.K.
LICENSE=CC BY-NC
SPLASH=splash10-000i-0222900000-9824a5cf33553ba10765
SUBMITTER=submitter = Nihon Waters (Nihon Waters K.K.)
SYNON_$=00in-source
COMPUTED_SMILES=O=N(=O)C1=CC=C(OC2=CC=C(C=C2CL)C(F)(F)F)C=C1C(O)=NS(=O)(=O)C
COMPUTED_[2M+H-H2O]+=858.9726687599998
COMPUTED_[2M+K]+=915.0783387599998
COMPUTED_[M+H]+=438.9979893799999
COMPUTED_[2M+NA]+=898.9698087599999
COMPUTED_[2M+CL]-=911.4330387599998
COMPUTED_[2M+HAC-H]-=935.0240687599999
COMPUTED_[M-H20-H]-=418.9716293799999
COMPUTED_[M-H]-=436.98274337999993
COMPUTED_[2M-H]-=874.9727627599998
COMPUTED_[M+NA]+=460.97978937999994
COMPUTED_[M+H-H2O]+=420.98264937999994
COMPUTED_[2M+NH4]+=894.0186187599999
COMPUTED_[M+CL]-=473.4430193799999
COMPUTED_[M+NH4]+=456.02859937999995
COMPUTED_[M+K]+=477.0883193799999
COMPUTED_[2M+H]+=876.9880087599998
COMPUTED_[M+HAC-H]-=497.03404937999994
FIND_PEAK=ignore rel.int. < 5
COMPUTED_SPECTRAL_ENTROPY=1.3616130050047555
COMPUTED_NORMALIZED_ENTROPY=0.6547974433100934
COMPUTED_MASS_ACCURACY=39.48883295210246
COMPUTED_MASS_ERROR=0.01725662000006878
MONA_RATING=4.545454545454546
NUM_PEAKS=8
COMPOUND_NAME=Fomesafen
SPECTRUM_ID=WA000262
ADDUCT=[M-H]-
MS_LEVEL=MS2
PRECURSOR_MZ=437.0
IONMODE=negative
NOMINAL_MASS=438
PARENT_MASS=437.9900193799999
RECORD_DATE=2016.01.19 (Created 2007.08.01, modified 2011.05.06)
120.0 0.2002002
137.0 0.01201201
195.0 0.06706706999999999
222.0 0.02702703
286.0 0.23123123
312.0 0.01201201
316.0 0.25125125
437.0 1.0
END IONS

BEGIN IONS
CHARGE=1-
INCHIKEY=BGZZWXTVIYUUEY-UHFFFAOYSA-N
INSTRUMENT_TYPE=LC-ESI-QQ
INSTRUMENT=QuattroPremier XE, Waters
COLLISION_ENERGY=10 V
FORMULA=C15H10ClF3N2O6S
SMILES=O=N(=O)c(c2)c(cc(c2)Oc(c1)c(Cl)cc(c1)C(F)(F)F)C(=O)NS(C)(=O)=O
CAS=72178-02-0
INCHI=InChI=1S/C15H10ClF3N2O6S/c1-28(25,26)20-14(22)10-7-9(3-4-12(10)21(23)24)27-13-5-2-8(6-11(13)16)15(17,18)19/h2-7H,1H3,(H,20,22)
AUTHOR=Nihon Waters K.K.
LICENSE=CC BY-NC
SPLASH=splash10-000i-0000900000-1a2184db18436038ed7b
SUBMITTER=submitter = Nihon Waters (Nihon Waters K.K.)
SYNON_$=00in-source
COMPUTED_SMILES=O=N(=O)C1=CC=C(OC2=CC=C(C=C2CL)C(F)(F)F)C=C1C(O)=NS(=O)(=O)C
COMPUTED_[2M+H-H2O]+=858.97266876
COMPUTED_[2M+K]+=915.0783387600001
COMPUTED_[M+H]+=438.99798938000004
COMPUTED_[2M+NA]+=898.9698087600001
COMPUTED_[2M+CL]-=911.43303876
COMPUTED_[2M+HAC-H]-=935.0240687600001
COMPUTED_[M-H20-H]-=418.97162938
COMPUTED_[M-H]-=436.98274338000004
COMPUTED_[2M-H]-=874.97276276
COMPUTED_[M+NA]+=460.97978938000006
COMPUTED_[M+H-H2O]+=420.98264938000005
COMPUTED_[2M+NH4]+=894.0186187600001
COMPUTED_[M+CL]-=473.44301938
COMPUTED_[M+NH4]+=456.02859938000006
COMPUTED_[M+K]+=477.08831938000003
COMPUTED_[2M+H]+=876.9880087600001
COMPUTED_[M+HAC-H]-=497.03404938000006
FIND_PEAK=ignore rel.int. < 5
COMPUTED_SPECTRAL_ENTROPY=0.0
COMPUTED_MASS_ACCURACY=39.48883295184232
COMPUTED_MASS_ERROR=0.017256619999955092
MONA_RATING=3.846153846153846
NUM_PEAKS=1
COMPOUND_NAME=Fomesafen
SPECTRUM_ID=WA000261
ADDUCT=[M-H]-
MS_LEVEL=MS2
PRECURSOR_MZ=437.0
IONMODE=negative
NOMINAL_MASS=438
PARENT_MASS=437.99001938000004
RECORD_DATE=2016.01.19 (Created 2007.08.01, modified 2011.05.06)
437.0 1.0
END IONS

BEGIN IONS
CHARGE=1+
INCHIKEY=QZXATCCPQKOEIH-UHFFFAOYSA-N
INSTRUMENT_TYPE=LC-ESI-QQ
INSTRUMENT=QuattroPremier XE, Waters
COLLISION_ENERGY=80 V
FORMULA=C12H8F3N5O3S
SMILES=COC(=N3)n(n1)c(C(F)=C3)nc1S(=O)(=O)Nc(c(F)2)c(F)ccc2
CAS=145701-23-1
INCHI=InChI=1S/C12H8F3N5O3S/c1-23-12-16-5-8(15)10-17-11(18-20(10)12)24(21,22)19-9-6(13)3-2-4-7(9)14/h2-5,19H,1H3
AUTHOR=Nihon Waters K.K.
LICENSE=CC BY-NC
SPLASH=splash10-053r-9500000000-8d502c5cbc4f21b31bbc
SUBMITTER=submitter = Nihon Waters (Nihon Waters K.K.)
SYNON_$=00in-source
COMPUTED_SMILES=O=S(=O)(NC=1C(F)=CC=CC1F)C=2N=C3C(F)=CN=C(OC)N3N2
COMPUTED_[2M+H-H2O]+=701.0526195519999
COMPUTED_[2M+K]+=757.1582895519999
COMPUTED_[M+H]+=360.03796477599997
COMPUTED_[2M+NA]+=741.049759552
COMPUTED_[2M+CL]-=753.5129895519999
COMPUTED_[2M+HAC-H]-=777.104019552
COMPUTED_[M-H20-H]-=340.01160477599996
COMPUTED_[M-H]-=358.022718776
COMPUTED_[2M-H]-=717.0527135519999
COMPUTED_[M+NA]+=382.019764776
COMPUTED_[M+H-H2O]+=342.022624776
COMPUTED_[2M+NH4]+=736.098569552
COMPUTED_[M+CL]-=394.48299477599994
COMPUTED_[M+NH4]+=377.068574776
COMPUTED_[M+K]+=398.12829477599996
COMPUTED_[2M+H]+=719.0679595519999
COMPUTED_[M+HAC-H]-=418.074024776
FIND_PEAK=ignore rel.int. < 5
COMPUTED_SPECTRAL_ENTROPY=2.62235782938493
COMPUTED_NORMALIZED_ENTROPY=0.7209060388502744
COMPUTED_MASS_ACCURACY=105.45771111101962
COMPUTED_MASS_ERROR=-0.03796477599996706
MONA_RATING=4.545454545454546
NUM_PEAKS=38
COMPOUND_NAME=Florasulam
SPECTRUM_ID=WA000260
ADDUCT=[M+H]+
MS_LEVEL=MS2
PRECURSOR_MZ=360.0
IONMODE=positive
NOMINAL_MASS=359
PARENT_MASS=359.02999477599997
RECORD_DATE=2016.01.19 (Created 2007.08.01, modified 2011.05.06)
51.0 0.08608608999999999
53.0 0.02702703
57.0 0.08208208
59.0 0.02402402
61.0 0.03103103
62.0 0.3963964
64.0 0.06306306
65.0 0.00800801
67.0 0.00800801
69.0 0.01201201
71.0 0.01601602
72.0 0.02002002
75.0 0.03903904
76.0 0.08608608999999999
78.0 0.01601602
80.0 0.14114114
82.0 1.0
83.0 0.055055059999999996
85.0 0.05905906
87.0 0.02002002
89.0 0.32932933
93.0 0.00800801
97.0 0.06306306
98.0 0.01201201
99.0 0.02002002
101.0 0.45445445
102.0 0.05105105
104.0 0.00800801
107.0 0.03103103
109.0 0.6906906899999999
110.0 0.02402402
112.0 0.00800801
114.0 0.02402402
115.0 0.01201201
126.0 0.00800801
129.0 0.41141141
130.0 0.01601602
139.0 0.00800801
END IONS

BEGIN IONS
CHARGE=1+
INCHIKEY=QZXATCCPQKOEIH-UHFFFAOYSA-N
INSTRUMENT_TYPE=LC-ESI-QQ
INSTRUMENT=QuattroPremier XE, Waters
COLLISION_ENERGY=70 V
FORMULA=C12H8F3N5O3S
INCHI=InChI=1S/C12H8F3N5O3S/c1-23-12-16-5-8(15)10-17-11(18-20(10)12)24(21,22)19-9-6(13)3-2-4-7(9)14/h2-5,19H,1H3
SMILES=COC(=N3)n(n1)c(C(F)=C3)nc1S(=O)(=O)Nc(c(F)2)c(F)ccc2
CAS=145701-23-1
AUTHOR=Nihon Waters K.K.
LICENSE=CC BY-NC
SPLASH=splash10-057i-8900000000-7f871cedcb894060aa6f
SUBMITTER=submitter = Nihon Waters (Nihon Waters K.K.)
SYNON_$=00in-source
COMPUTED_SMILES=O=S(=O)(NC=1C(F)=CC=CC1F)C=2N=C3C(F)=CN=C(OC)N3N2
COMPUTED_[2M+H-H2O]+=701.0526195519999
COMPUTED_[2M+K]+=757.1582895519999
COMPUTED_[M+H]+=360.03796477599997
COMPUTED_[2M+NA]+=741.049759552
COMPUTED_[2M+CL]-=753.5129895519999
COMPUTED_[2M+HAC-H]-=777.104019552
COMPUTED_[M-H20-H]-=340.01160477599996
COMPUTED_[M-H]-=358.022718776
COMPUTED_[2M-H]-=717.0527135519999
COMPUTED_[M+NA]+=382.019764776
COMPUTED_[M+H-H2O]+=342.022624776
COMPUTED_[2M+NH4]+=736.098569552
COMPUTED_[M+CL]-=394.48299477599994
COMPUTED_[M+NH4]+=377.068574776
COMPUTED_[M+K]+=398.12829477599996
COMPUTED_[2M+H]+=719.0679595519999
COMPUTED_[M+HAC-H]-=418.074024776
FIND_PEAK=ignore rel.int. < 5
COMPUTED_SPECTRAL_ENTROPY=2.4387683896549777
COMPUTED_NORMALIZED_ENTROPY=0.6611136037354646
COMPUTED_MASS_ACCURACY=105.45771111101962
COMPUTED_MASS_ERROR=-0.03796477599996706
MONA_RATING=4.545454545454546
NUM_PEAKS=40
COMPOUND_NAME=Florasulam
SPECTRUM_ID=WA000259
ADDUCT=[M+H]+
MS_LEVEL=MS2
PRECURSOR_MZ=360.0
IONMODE=positive
NOMINAL_MASS=359
PARENT_MASS=359.02999477599997
RECORD_DATE=2016.01.19 (Created 2007.08.01, modified 2011.05.06)
51.0 0.02402402
52.0 0.06706706999999999
57.0 0.04704705
59.0 0.01201201
62.0 0.40740741
64.0 0.01601602
65.0 0.00800801
67.0 0.02002002
70.0 0.01601602
72.0 0.035035039999999996
75.0 0.043043040000000005
77.0 0.05105105
80.0 0.06306306
82.0 0.97297297
83.0 0.02402402
85.0 0.01601602
87.0 0.01201201
89.0 0.4044044
90.0 0.01601602
95.0 0.01601602
97.0 0.03103103
98.0 0.01201201
100.0 0.07807808
101.0 0.35335335
103.0 0.01601602
107.0 0.043043040000000005
109.0 0.88188188
110.0 0.035035039999999996
111.0 0.01601602
113.0 0.00800801
116.0 0.00800801
120.0 0.01601602
122.0 0.01201201
125.0 0.00800801
127.0 0.01201201
129.0 1.0
130.0 0.02402402
138.0 0.00800801
143.0 0.01201201
165.0 0.02002002
END IONS

BEGIN IONS
CHARGE=1+
INCHIKEY=QZXATCCPQKOEIH-UHFFFAOYSA-N
INSTRUMENT_TYPE=LC-ESI-QQ
INSTRUMENT=QuattroPremier XE, Waters
COLLISION_ENERGY=60 V
FORMULA=C12H8F3N5O3S
SMILES=COC(=N3)n(n1)c(C(F)=C3)nc1S(=O)(=O)Nc(c(F)2)c(F)ccc2
CAS=145701-23-1
INCHI=InChI=1S/C12H8F3N5O3S/c1-23-12-16-5-8(15)10-17-11(18-20(10)12)24(21,22)19-9-6(13)3-2-4-7(9)14/h2-5,19H,1H3
AUTHOR=Nihon Waters K.K.
LICENSE=CC BY-NC
SPLASH=splash10-056r-2900000000-398e0495c7658859097f
SUBMITTER=submitter = Nihon Waters (Nihon Waters K.K.)
SYNON_$=00in-source
COMPUTED_SMILES=O=S(=O)(NC=1C(F)=CC=CC1F)C=2N=C3C(F)=CN=C(OC)N3N2
COMPUTED_[2M+H-H2O]+=701.0526195519999
COMPUTED_[2M+K]+=757.1582895519999
COMPUTED_[M+H]+=360.03796477599997
COMPUTED_[2M+NA]+=741.049759552
COMPUTED_[2M+CL]-=753.5129895519999
COMPUTED_[2M+HAC-H]-=777.104019552
COMPUTED_[M-H20-H]-=340.01160477599996
COMPUTED_[M-H]-=358.022718776
COMPUTED_[2M-H]-=717.0527135519999
COMPUTED_[M+NA]+=382.019764776
COMPUTED_[M+H-H2O]+=342.022624776
COMPUTED_[2M+NH4]+=736.098569552
COMPUTED_[M+CL]-=394.48299477599994
COMPUTED_[M+NH4]+=377.068574776
COMPUTED_[M+K]+=398.12829477599996
COMPUTED_[2M+H]+=719.0679595519999
COMPUTED_[M+HAC-H]-=418.074024776
FIND_PEAK=ignore rel.int. < 5
COMPUTED_SPECTRAL_ENTROPY=1.8413835353280399
COMPUTED_NORMALIZED_ENTROPY=0.5872705891062783
COMPUTED_MASS_ACCURACY=105.45771111101962
COMPUTED_MASS_ERROR=-0.03796477599996706
MONA_RATING=4.545454545454546
NUM_PEAKS=23
COMPOUND_NAME=Florasulam
SPECTRUM_ID=WA000258
ADDUCT=[M+H]+
MS_LEVEL=MS2
PRECURSOR_MZ=360.0
IONMODE=positive
NOMINAL_MASS=359
PARENT_MASS=359.02999477599997
RECORD_DATE=2016.01.19 (Created 2007.08.01, modified 2011.05.06)
51.0 0.01201201
53.0 0.00800801
57.0 0.01201201
62.0 0.03903904
63.0 0.01201201
78.0 0.01601602
80.0 0.02002002
82.0 0.18818819
85.0 0.01201201
89.0 0.15315315
96.0 0.02002002
100.0 0.00800801
101.0 0.16116116000000003
103.0 0.00800801
107.0 0.01201201
109.0 0.50550551
111.0 0.01601602
113.0 0.00800801
124.0 0.01201201
127.0 0.00800801
129.0 1.0
130.0 0.02702703
144.0 0.01201201
END IONS

BEGIN IONS
CHARGE=1+
INCHIKEY=QZXATCCPQKOEIH-UHFFFAOYSA-N
INSTRUMENT_TYPE=LC-ESI-QQ
INSTRUMENT=QuattroPremier XE, Waters
COLLISION_ENERGY=50 V
FORMULA=C12H8F3N5O3S
SMILES=COC(=N3)n(n1)c(C(F)=C3)nc1S(=O)(=O)Nc(c(F)2)c(F)ccc2
CAS=145701-23-1
INCHI=InChI=1S/C12H8F3N5O3S/c1-23-12-16-5-8(15)10-17-11(18-20(10)12)24(21,22)19-9-6(13)3-2-4-7(9)14/h2-5,19H,1H3
AUTHOR=Nihon Waters K.K.
LICENSE=CC BY-NC
SPLASH=splash10-004i-0900000000-e2d83e42d7feabe0ab4f
SUBMITTER=submitter = Nihon Waters (Nihon Waters K.K.)
SYNON_$=00in-source
COMPUTED_SMILES=O=S(=O)(NC=1C(F)=CC=CC1F)C=2N=C3C(F)=CN=C(OC)N3N2
COMPUTED_[2M+H-H2O]+=701.0526195519999
COMPUTED_[2M+K]+=757.1582895519999
COMPUTED_[M+H]+=360.03796477599997
COMPUTED_[2M+NA]+=741.049759552
COMPUTED_[2M+CL]-=753.5129895519999
COMPUTED_[2M+HAC-H]-=777.104019552
COMPUTED_[M-H20-H]-=340.01160477599996
COMPUTED_[M-H]-=358.022718776
COMPUTED_[2M-H]-=717.0527135519999
COMPUTED_[M+NA]+=382.019764776
COMPUTED_[M+H-H2O]+=342.022624776
COMPUTED_[2M+NH4]+=736.098569552
COMPUTED_[M+CL]-=394.48299477599994
COMPUTED_[M+NH4]+=377.068574776
COMPUTED_[M+K]+=398.12829477599996
COMPUTED_[2M+H]+=719.0679595519999
COMPUTED_[M+HAC-H]-=418.074024776
FIND_PEAK=ignore rel.int. < 5
COMPUTED_SPECTRAL_ENTROPY=1.1346663895921156
COMPUTED_NORMALIZED_ENTROPY=0.45662334626893114
COMPUTED_MASS_ACCURACY=105.45771111101962
COMPUTED_MASS_ERROR=-0.03796477599996706
MONA_RATING=4.545454545454546
NUM_PEAKS=12
COMPOUND_NAME=Florasulam
SPECTRUM_ID=WA000257
ADDUCT=[M+H]+
MS_LEVEL=MS2
PRECURSOR_MZ=360.0
IONMODE=positive
NOMINAL_MASS=359
PARENT_MASS=359.02999477599997
RECORD_DATE=2016.01.19 (Created 2007.08.01, modified 2011.05.06)
62.0 0.00800801
82.0 0.05105105
89.0 0.035035039999999996
98.0 0.00800801
100.0 0.01201201
102.0 0.05905906
107.0 0.02002002
109.0 0.18418418
110.0 0.00800801
129.0 1.0
130.0 0.01601602
144.0 0.01201201
END IONS

BEGIN IONS
CHARGE=1+
INCHIKEY=QZXATCCPQKOEIH-UHFFFAOYSA-N
INSTRUMENT_TYPE=LC-ESI-QQ
INSTRUMENT=QuattroPremier XE, Waters
COLLISION_ENERGY=40 V
FORMULA=C12H8F3N5O3S
SMILES=COC(=N3)n(n1)c(C(F)=C3)nc1S(=O)(=O)Nc(c(F)2)c(F)ccc2
CAS=145701-23-1
INCHI=InChI=1S/C12H8F3N5O3S/c1-23-12-16-5-8(15)10-17-11(18-20(10)12)24(21,22)19-9-6(13)3-2-4-7(9)14/h2-5,19H,1H3
AUTHOR=Nihon Waters K.K.
LICENSE=CC BY-NC
SPLASH=splash10-004i-0900000000-3c0f533970a411ccec0d
SUBMITTER=submitter = Nihon Waters (Nihon Waters K.K.)
SYNON_$=00in-source
COMPUTED_SMILES=O=S(=O)(NC=1C(F)=CC=CC1F)C=2N=C3C(F)=CN=C(OC)N3N2
COMPUTED_[2M+H-H2O]+=701.0526195519999
COMPUTED_[2M+K]+=757.1582895519999
COMPUTED_[M+H]+=360.03796477599997
COMPUTED_[2M+NA]+=741.049759552
COMPUTED_[2M+CL]-=753.5129895519999
COMPUTED_[2M+HAC-H]-=777.104019552
COMPUTED_[M-H20-H]-=340.01160477599996
COMPUTED_[M-H]-=358.022718776
COMPUTED_[2M-H]-=717.0527135519999
COMPUTED_[M+NA]+=382.019764776
COMPUTED_[M+H-H2O]+=342.022624776
COMPUTED_[2M+NH4]+=736.098569552
COMPUTED_[M+CL]-=394.48299477599994
COMPUTED_[M+NH4]+=377.068574776
COMPUTED_[M+K]+=398.12829477599996
COMPUTED_[2M+H]+=719.0679595519999
COMPUTED_[M+HAC-H]-=418.074024776
FIND_PEAK=ignore rel.int. < 5
COMPUTED_SPECTRAL_ENTROPY=0.6467384233329021
COMPUTED_NORMALIZED_ENTROPY=0.29434334114220045
COMPUTED_MASS_ACCURACY=105.45771111101962
COMPUTED_MASS_ERROR=-0.03796477599996706
MONA_RATING=4.545454545454546
NUM_PEAKS=9
COMPOUND_NAME=Florasulam
SPECTRUM_ID=WA000256
ADDUCT=[M+H]+
MS_LEVEL=MS2
PRECURSOR_MZ=360.0
IONMODE=positive
NOMINAL_MASS=359
PARENT_MASS=359.02999477599997
RECORD_DATE=2016.01.19 (Created 2007.08.01, modified 2011.05.06)
82.0 0.01601602
88.0 0.00800801
101.0 0.01601602
107.0 0.00800801
108.0 0.06306306
129.0 1.0
130.0 0.01601602
144.0 0.02402402
168.0 0.00800801
END IONS

BEGIN IONS
CHARGE=1+
INCHIKEY=QZXATCCPQKOEIH-UHFFFAOYSA-N
INSTRUMENT_TYPE=LC-ESI-QQ
INSTRUMENT=QuattroPremier XE, Waters
COLLISION_ENERGY=30 V
FORMULA=C12H8F3N5O3S
SMILES=COC(=N3)n(n1)c(C(F)=C3)nc1S(=O)(=O)Nc(c(F)2)c(F)ccc2
CAS=145701-23-1
INCHI=InChI=1S/C12H8F3N5O3S/c1-23-12-16-5-8(15)10-17-11(18-20(10)12)24(21,22)19-9-6(13)3-2-4-7(9)14/h2-5,19H,1H3
AUTHOR=Nihon Waters K.K.
LICENSE=CC BY-NC
SPLASH=splash10-004i-0900000000-4b9bb4c69f628141418b
SUBMITTER=submitter = Nihon Waters (Nihon Waters K.K.)
SYNON_$=00in-source
COMPUTED_SMILES=O=S(=O)(NC=1C(F)=CC=CC1F)C=2N=C3C(F)=CN=C(OC)N3N2
COMPUTED_[2M+H-H2O]+=701.0526195519999
COMPUTED_[2M+K]+=757.1582895519999
COMPUTED_[M+H]+=360.03796477599997
COMPUTED_[2M+NA]+=741.049759552
COMPUTED_[2M+CL]-=753.5129895519999
COMPUTED_[2M+HAC-H]-=777.104019552
COMPUTED_[M-H20-H]-=340.01160477599996
COMPUTED_[M-H]-=358.022718776
COMPUTED_[2M-H]-=717.0527135519999
COMPUTED_[M+NA]+=382.019764776
COMPUTED_[M+H-H2O]+=342.022624776
COMPUTED_[2M+NH4]+=736.098569552
COMPUTED_[M+CL]-=394.48299477599994
COMPUTED_[M+NH4]+=377.068574776
COMPUTED_[M+K]+=398.12829477599996
COMPUTED_[2M+H]+=719.0679595519999
COMPUTED_[M+HAC-H]-=418.074024776
FIND_PEAK=ignore rel.int. < 5
COMPUTED_SPECTRAL_ENTROPY=0.34743914548281113
COMPUTED_NORMALIZED_ENTROPY=0.19390947917384166
COMPUTED_MASS_ACCURACY=105.45771111101962
COMPUTED_MASS_ERROR=-0.03796477599996706
MONA_RATING=4.545454545454546
NUM_PEAKS=6
COMPOUND_NAME=Florasulam
SPECTRUM_ID=WA000255
ADDUCT=[M+H]+
MS_LEVEL=MS2
PRECURSOR_MZ=360.0
IONMODE=positive
NOMINAL_MASS=359
PARENT_MASS=359.02999477599997
RECORD_DATE=2016.01.19 (Created 2007.08.01, modified 2011.05.06)
108.0 0.00800801
115.0 0.00800801
127.0 0.00800801
129.0 1.0
130.0 0.01201201
144.0 0.03903904
END IONS

BEGIN IONS
CHARGE=1+
INCHIKEY=QZXATCCPQKOEIH-UHFFFAOYSA-N
INSTRUMENT_TYPE=LC-ESI-QQ
INSTRUMENT=QuattroPremier XE, Waters
COLLISION_ENERGY=20 V
FORMULA=C12H8F3N5O3S
SMILES=COC(=N3)n(n1)c(C(F)=C3)nc1S(=O)(=O)Nc(c(F)2)c(F)ccc2
CAS=145701-23-1
INCHI=InChI=1S/C12H8F3N5O3S/c1-23-12-16-5-8(15)10-17-11(18-20(10)12)24(21,22)19-9-6(13)3-2-4-7(9)14/h2-5,19H,1H3
AUTHOR=Nihon Waters K.K.
LICENSE=CC BY-NC
SPLASH=splash10-004i-0900000000-33b47adc0f204f5be52e
SUBMITTER=submitter = Nihon Waters (Nihon Waters K.K.)
SYNON_$=00in-source
COMPUTED_SMILES=O=S(=O)(NC=1C(F)=CC=CC1F)C=2N=C3C(F)=CN=C(OC)N3N2
COMPUTED_[2M+H-H2O]+=701.0526195519999
COMPUTED_[2M+K]+=757.1582895519999
COMPUTED_[M+H]+=360.03796477599997
COMPUTED_[2M+NA]+=741.049759552
COMPUTED_[2M+CL]-=753.5129895519999
COMPUTED_[2M+HAC-H]-=777.104019552
COMPUTED_[M-H20-H]-=340.01160477599996
COMPUTED_[M-H]-=358.022718776
COMPUTED_[2M-H]-=717.0527135519999
COMPUTED_[M+NA]+=382.019764776
COMPUTED_[M+H-H2O]+=342.022624776
COMPUTED_[2M+NH4]+=736.098569552
COMPUTED_[M+CL]-=394.48299477599994
COMPUTED_[M+NH4]+=377.068574776
COMPUTED_[M+K]+=398.12829477599996
COMPUTED_[2M+H]+=719.0679595519999
COMPUTED_[M+HAC-H]-=418.074024776
FIND_PEAK=ignore rel.int. < 5
COMPUTED_SPECTRAL_ENTROPY=0.6523614893612949
COMPUTED_NORMALIZED_ENTROPY=0.3640898795653371
COMPUTED_MASS_ACCURACY=105.45771111101962
COMPUTED_MASS_ERROR=-0.03796477599996706
MONA_RATING=4.545454545454546
NUM_PEAKS=6
COMPOUND_NAME=Florasulam
SPECTRUM_ID=WA000254
ADDUCT=[M+H]+
MS_LEVEL=MS2
PRECURSOR_MZ=360.0
IONMODE=positive
NOMINAL_MASS=359
PARENT_MASS=359.02999477599997
RECORD_DATE=2016.01.19 (Created 2007.08.01, modified 2011.05.06)
129.0 1.0
130.0 0.01601602
144.0 0.04704705
192.0 0.04704705
296.0 0.02002002
360.0 0.04704705
END IONS

BEGIN IONS
CHARGE=1+
INCHIKEY=QZXATCCPQKOEIH-UHFFFAOYSA-N
INSTRUMENT_TYPE=LC-ESI-QQ
INSTRUMENT=QuattroPremier XE, Waters
COLLISION_ENERGY=10 V
FORMULA=C12H8F3N5O3S
SMILES=COC(=N3)n(n1)c(C(F)=C3)nc1S(=O)(=O)Nc(c(F)2)c(F)ccc2
CAS=145701-23-1
INCHI=InChI=1S/C12H8F3N5O3S/c1-23-12-16-5-8(15)10-17-11(18-20(10)12)24(21,22)19-9-6(13)3-2-4-7(9)14/h2-5,19H,1H3
AUTHOR=Nihon Waters K.K.
LICENSE=CC BY-NC
SPLASH=splash10-03di-0009000000-a5d06dec9c6e2cb173fd
SUBMITTER=submitter = Nihon Waters (Nihon Waters K.K.)
SYNON_$=00in-source
COMPUTED_SMILES=O=S(=O)(NC=1C(F)=CC=CC1F)C=2N=C3C(F)=CN=C(OC)N3N2
COMPUTED_[2M+H-H2O]+=701.0526195519999
COMPUTED_[2M+K]+=757.1582895519999
COMPUTED_[M+H]+=360.03796477599997
COMPUTED_[2M+NA]+=741.049759552
COMPUTED_[2M+CL]-=753.5129895519999
COMPUTED_[2M+HAC-H]-=777.104019552
COMPUTED_[M-H20-H]-=340.01160477599996
COMPUTED_[M-H]-=358.022718776
COMPUTED_[2M-H]-=717.0527135519999
COMPUTED_[M+NA]+=382.019764776
COMPUTED_[M+H-H2O]+=342.022624776
COMPUTED_[2M+NH4]+=736.098569552
COMPUTED_[M+CL]-=394.48299477599994
COMPUTED_[M+NH4]+=377.068574776
COMPUTED_[M+K]+=398.12829477599996
COMPUTED_[2M+H]+=719.0679595519999
COMPUTED_[M+HAC-H]-=418.074024776
FIND_PEAK=ignore rel.int. < 5
COMPUTED_SPECTRAL_ENTROPY=0.4726016750891261
COMPUTED_NORMALIZED_ENTROPY=0.3409100464834497
COMPUTED_MASS_ACCURACY=105.45771111101962
COMPUTED_MASS_ERROR=-0.03796477599996706
MONA_RATING=4.545454545454546
NUM_PEAKS=4
COMPOUND_NAME=Florasulam
SPECTRUM_ID=WA000253
ADDUCT=[M+H]+
MS_LEVEL=MS2
PRECURSOR_MZ=360.0
IONMODE=positive
NOMINAL_MASS=359
PARENT_MASS=359.02999477599997
RECORD_DATE=2016.01.19 (Created 2007.08.01, modified 2011.05.06)
129.0 0.09809810000000001
192.0 0.01201201
360.0 1.0
361.0 0.03103103
END IONS

BEGIN IONS
CHARGE=1+
INCHIKEY=RXCPQSJAVKGONC-UHFFFAOYSA-N
INSTRUMENT_TYPE=LC-ESI-QQ
INSTRUMENT=QuattroPremier XE, Waters
COLLISION_ENERGY=60 V
FORMULA=C12H9F2N5O2S
SMILES=CC(C=3)=Nc(n1)n(C3)nc1S(=O)(=O)Nc(c(F)2)c(F)ccc2
CAS=98967-40-9
INCHI=InChI=1S/C12H9F2N5O2S/c1-7-5-6-19-11(15-7)16-12(17-19)22(20,21)18-10-8(13)3-2-4-9(10)14/h2-6,18H,1H3
AUTHOR=Nihon Waters K.K.
LICENSE=CC BY-NC
SPLASH=splash10-0a6r-0900000000-814371bbce55788722f0
SUBMITTER=submitter = Nihon Waters (Nihon Waters K.K.)
SYNON_$=00in-source
COMPUTED_SMILES=O=S(=O)(NC=1C(F)=CC=CC1F)C=2N=C3N=C(C=CN3N2)C
COMPUTED_[2M+H-H2O]+=633.081633936
COMPUTED_[2M+K]+=689.187303936
COMPUTED_[M+H]+=326.052471968
COMPUTED_[2M+NA]+=673.0787739360001
COMPUTED_[2M+CL]-=685.542003936
COMPUTED_[2M+HAC-H]-=709.1330339360001
COMPUTED_[M-H20-H]-=306.026111968
COMPUTED_[M-H]-=324.03722596800003
COMPUTED_[2M-H]-=649.081727936
COMPUTED_[M+NA]+=348.03427196800004
COMPUTED_[M+H-H2O]+=308.03713196800004
COMPUTED_[2M+NH4]+=668.1275839360001
COMPUTED_[M+CL]-=360.49750196800005
COMPUTED_[M+NH4]+=343.08308196800004
COMPUTED_[M+K]+=364.142801968
COMPUTED_[2M+H]+=651.096973936
COMPUTED_[M+HAC-H]-=384.08853196800004
FIND_PEAK=ignore rel.int. < 5
COMPUTED_SPECTRAL_ENTROPY=1.5463352933757772
COMPUTED_NORMALIZED_ENTROPY=0.5710142643391173
COMPUTED_MASS_ACCURACY=160.95695705527697
COMPUTED_MASS_ERROR=-0.0524719680000203
MONA_RATING=4.545454545454546
NUM_PEAKS=15
COMPOUND_NAME=Flumetsulam
SPECTRUM_ID=WA000244
ADDUCT=[M+H]+
MS_LEVEL=MS2
PRECURSOR_MZ=326.0
IONMODE=positive
NOMINAL_MASS=325
PARENT_MASS=325.044501968
RECORD_DATE=2016.01.19 (Created 2007.08.01, modified 2011.05.06)
101.0 0.5015014999999999
103.0 0.02002002
105.0 0.01601602
107.0 0.11411410999999999
109.0 0.9449449400000001
110.0 0.04704705
115.0 0.01201201
119.0 0.01201201
123.0 0.01601602
126.0 0.01601602
129.0 1.0
130.0 0.03903904
134.0 0.01601602
144.0 0.01201201
147.0 0.00800801
END IONS

BEGIN IONS
CHARGE=1+
INCHIKEY=RXCPQSJAVKGONC-UHFFFAOYSA-N
INSTRUMENT_TYPE=LC-ESI-QQ
INSTRUMENT=QuattroPremier XE, Waters
COLLISION_ENERGY=50 V
FORMULA=C12H9F2N5O2S
SMILES=CC(C=3)=Nc(n1)n(C3)nc1S(=O)(=O)Nc(c(F)2)c(F)ccc2
CAS=98967-40-9
INCHI=InChI=1S/C12H9F2N5O2S/c1-7-5-6-19-11(15-7)16-12(17-19)22(20,21)18-10-8(13)3-2-4-9(10)14/h2-6,18H,1H3
AUTHOR=Nihon Waters K.K.
LICENSE=CC BY-NC
SPLASH=splash10-004i-0900000000-e6aa8b6cd138076a8e36
SUBMITTER=submitter = Nihon Waters (Nihon Waters K.K.)
SYNON_$=00in-source
COMPUTED_SMILES=O=S(=O)(NC=1C(F)=CC=CC1F)C=2N=C3N=C(C=CN3N2)C
COMPUTED_[2M+H-H2O]+=633.081633936
COMPUTED_[2M+K]+=689.187303936
COMPUTED_[M+H]+=326.052471968
COMPUTED_[2M+NA]+=673.0787739360001
COMPUTED_[2M+CL]-=685.542003936
COMPUTED_[2M+HAC-H]-=709.1330339360001
COMPUTED_[M-H20-H]-=306.026111968
COMPUTED_[M-H]-=324.03722596800003
COMPUTED_[2M-H]-=649.081727936
COMPUTED_[M+NA]+=348.03427196800004
COMPUTED_[M+H-H2O]+=308.03713196800004
COMPUTED_[2M+NH4]+=668.1275839360001
COMPUTED_[M+CL]-=360.49750196800005
COMPUTED_[M+NH4]+=343.08308196800004
COMPUTED_[M+K]+=364.142801968
COMPUTED_[2M+H]+=651.096973936
COMPUTED_[M+HAC-H]-=384.08853196800004
FIND_PEAK=ignore rel.int. < 5
COMPUTED_SPECTRAL_ENTROPY=1.3941161270334084
COMPUTED_NORMALIZED_ENTROPY=0.5282629185007713
COMPUTED_MASS_ACCURACY=160.95695705527697
COMPUTED_MASS_ERROR=-0.0524719680000203
MONA_RATING=4.545454545454546
NUM_PEAKS=14
COMPOUND_NAME=Flumetsulam
SPECTRUM_ID=WA000243
ADDUCT=[M+H]+
MS_LEVEL=MS2
PRECURSOR_MZ=326.0
IONMODE=positive
NOMINAL_MASS=325
PARENT_MASS=325.044501968
RECORD_DATE=2016.01.19 (Created 2007.08.01, modified 2011.05.06)
101.0 0.16116116000000003
103.0 0.01201201
105.0 0.00800801
107.0 0.09009009000000001
109.0 0.37237237
110.0 0.01601602
119.0 0.00800801
123.0 0.00800801
126.0 0.00800801
127.0 0.02002002
129.0 1.0
130.0 0.01201201
134.0 0.03103103
144.0 0.01601602
END IONS

BEGIN IONS
CHARGE=1+
INCHIKEY=RXCPQSJAVKGONC-UHFFFAOYSA-N
INSTRUMENT_TYPE=LC-ESI-QQ
INSTRUMENT=QuattroPremier XE, Waters
COLLISION_ENERGY=40 V
FORMULA=C12H9F2N5O2S
SMILES=CC(C=3)=Nc(n1)n(C3)nc1S(=O)(=O)Nc(c(F)2)c(F)ccc2
CAS=98967-40-9
INCHI=InChI=1S/C12H9F2N5O2S/c1-7-5-6-19-11(15-7)16-12(17-19)22(20,21)18-10-8(13)3-2-4-9(10)14/h2-6,18H,1H3
LICENSE=CC BY-NC
AUTHOR=Nihon Waters K.K.
SPLASH=splash10-004i-1900000000-e406c5409e802daaaed8
SUBMITTER=submitter = Nihon Waters (Nihon Waters K.K.)
SYNON_$=00in-source
COMPUTED_SMILES=O=S(=O)(NC=1C(F)=CC=CC1F)C=2N=C3N=C(C=CN3N2)C
COMPUTED_[2M+H-H2O]+=633.081633936
COMPUTED_[2M+K]+=689.187303936
COMPUTED_[M+H]+=326.052471968
COMPUTED_[2M+NA]+=673.0787739360001
COMPUTED_[2M+CL]-=685.542003936
COMPUTED_[2M+HAC-H]-=709.1330339360001
COMPUTED_[M-H20-H]-=306.026111968
COMPUTED_[M-H]-=324.03722596800003
COMPUTED_[2M-H]-=649.081727936
COMPUTED_[M+NA]+=348.03427196800004
COMPUTED_[M+H-H2O]+=308.03713196800004
COMPUTED_[2M+NH4]+=668.1275839360001
COMPUTED_[M+CL]-=360.49750196800005
COMPUTED_[M+NH4]+=343.08308196800004
COMPUTED_[M+K]+=364.142801968
COMPUTED_[2M+H]+=651.096973936
COMPUTED_[M+HAC-H]-=384.08853196800004
FIND_PEAK=ignore rel.int. < 5
COMPUTED_SPECTRAL_ENTROPY=1.6013535147122124
COMPUTED_NORMALIZED_ENTROPY=0.5345449354232328
COMPUTED_MASS_ACCURACY=160.95695705527697
COMPUTED_MASS_ERROR=-0.0524719680000203
MONA_RATING=4.545454545454546
NUM_PEAKS=20
COMPOUND_NAME=Flumetsulam
SPECTRUM_ID=WA000242
ADDUCT=[M+H]+
MS_LEVEL=MS2
PRECURSOR_MZ=326.0
IONMODE=positive
NOMINAL_MASS=325
PARENT_MASS=325.044501968
RECORD_DATE=2016.01.19 (Created 2007.08.01, modified 2011.05.06)
66.0 0.02002002
78.0 0.02402402
80.0 0.00800801
82.0 0.02702703
88.0 0.01201201
91.0 0.00800801
93.0 0.08608608999999999
101.0 0.04704705
102.0 0.00800801
106.0 0.03103103
108.0 0.12512513
109.0 0.03103103
124.0 0.00800801
127.0 0.01201201
129.0 1.0
130.0 0.01601602
134.0 0.03903904
135.0 0.00800801
144.0 0.06706706999999999
153.0 0.00800801
END IONS

BEGIN IONS
CHARGE=1+
INCHIKEY=RXCPQSJAVKGONC-UHFFFAOYSA-N
INSTRUMENT_TYPE=LC-ESI-QQ
INSTRUMENT=QuattroPremier XE, Waters
COLLISION_ENERGY=30 V
FORMULA=C12H9F2N5O2S
SMILES=CC(C=3)=Nc(n1)n(C3)nc1S(=O)(=O)Nc(c(F)2)c(F)ccc2
CAS=98967-40-9
INCHI=InChI=1S/C12H9F2N5O2S/c1-7-5-6-19-11(15-7)16-12(17-19)22(20,21)18-10-8(13)3-2-4-9(10)14/h2-6,18H,1H3
AUTHOR=Nihon Waters K.K.
LICENSE=CC BY-NC
SPLASH=splash10-004i-0900000000-6f2a6a961b1e1a45b142
SUBMITTER=submitter = Nihon Waters (Nihon Waters K.K.)
SYNON_$=00in-source
COMPUTED_SMILES=O=S(=O)(NC=1C(F)=CC=CC1F)C=2N=C3N=C(C=CN3N2)C
COMPUTED_[2M+H-H2O]+=633.081633936
COMPUTED_[2M+K]+=689.187303936
COMPUTED_[M+H]+=326.052471968
COMPUTED_[2M+NA]+=673.0787739360001
COMPUTED_[2M+CL]-=685.542003936
COMPUTED_[2M+HAC-H]-=709.1330339360001
COMPUTED_[M-H20-H]-=306.026111968
COMPUTED_[M-H]-=324.03722596800003
COMPUTED_[2M-H]-=649.081727936
COMPUTED_[M+NA]+=348.03427196800004
COMPUTED_[M+H-H2O]+=308.03713196800004
COMPUTED_[2M+NH4]+=668.1275839360001
COMPUTED_[M+CL]-=360.49750196800005
COMPUTED_[M+NH4]+=343.08308196800004
COMPUTED_[M+K]+=364.142801968
COMPUTED_[2M+H]+=651.096973936
COMPUTED_[M+HAC-H]-=384.08853196800004
FIND_PEAK=ignore rel.int. < 5
COMPUTED_SPECTRAL_ENTROPY=1.170841754514194
COMPUTED_NORMALIZED_ENTROPY=0.42229189822584023
COMPUTED_MASS_ACCURACY=160.95695705527697
COMPUTED_MASS_ERROR=-0.0524719680000203
MONA_RATING=4.545454545454546
NUM_PEAKS=16
COMPOUND_NAME=Flumetsulam
SPECTRUM_ID=WA000241
ADDUCT=[M+H]+
MS_LEVEL=MS2
PRECURSOR_MZ=326.0
IONMODE=positive
NOMINAL_MASS=325
PARENT_MASS=325.044501968
RECORD_DATE=2016.01.19 (Created 2007.08.01, modified 2011.05.06)
66.0 0.00800801
78.0 0.01201201
93.0 0.043043040000000005
101.0 0.01201201
106.0 0.02002002
107.0 0.00800801
108.0 0.02402402
127.0 0.02002002
129.0 1.0
130.0 0.01601602
134.0 0.06306306
135.0 0.01201201
144.0 0.07107107
153.0 0.01201201
201.0 0.00800801
262.0 0.00800801
END IONS

BEGIN IONS
CHARGE=1+
INCHIKEY=RXCPQSJAVKGONC-UHFFFAOYSA-N
INSTRUMENT_TYPE=LC-ESI-QQ
INSTRUMENT=QuattroPremier XE, Waters
COLLISION_ENERGY=20 V
FORMULA=C12H9F2N5O2S
SMILES=CC(C=3)=Nc(n1)n(C3)nc1S(=O)(=O)Nc(c(F)2)c(F)ccc2
CAS=98967-40-9
INCHI=InChI=1S/C12H9F2N5O2S/c1-7-5-6-19-11(15-7)16-12(17-19)22(20,21)18-10-8(13)3-2-4-9(10)14/h2-6,18H,1H3
AUTHOR=Nihon Waters K.K.
LICENSE=CC BY-NC
SPLASH=splash10-004i-0901000000-ba4f54938fb4ef964ec3
SUBMITTER=submitter = Nihon Waters (Nihon Waters K.K.)
SYNON_$=00in-source
COMPUTED_SMILES=O=S(=O)(NC=1C(F)=CC=CC1F)C=2N=C3N=C(C=CN3N2)C
COMPUTED_[2M+H-H2O]+=633.0816339359999
COMPUTED_[2M+K]+=689.1873039359999
COMPUTED_[M+H]+=326.05247196799996
COMPUTED_[2M+NA]+=673.078773936
COMPUTED_[2M+CL]-=685.5420039359999
COMPUTED_[2M+HAC-H]-=709.133033936
COMPUTED_[M-H20-H]-=306.02611196799995
COMPUTED_[M-H]-=324.037225968
COMPUTED_[2M-H]-=649.0817279359999
COMPUTED_[M+NA]+=348.034271968
COMPUTED_[M+H-H2O]+=308.037131968
COMPUTED_[2M+NH4]+=668.127583936
COMPUTED_[M+CL]-=360.49750196799994
COMPUTED_[M+NH4]+=343.083081968
COMPUTED_[M+K]+=364.14280196799996
COMPUTED_[2M+H]+=651.0969739359999
COMPUTED_[M+HAC-H]-=384.088531968
FIND_PEAK=ignore rel.int. < 5
COMPUTED_SPECTRAL_ENTROPY=1.4331160580924398
COMPUTED_NORMALIZED_ENTROPY=0.5430408964633482
COMPUTED_MASS_ACCURACY=160.9569570551026
COMPUTED_MASS_ERROR=-0.052471967999963454
MONA_RATING=4.545454545454546
NUM_PEAKS=14
COMPOUND_NAME=Flumetsulam
SPECTRUM_ID=WA000240
ADDUCT=[M+H]+
MS_LEVEL=MS2
PRECURSOR_MZ=326.0
IONMODE=positive
NOMINAL_MASS=325
PARENT_MASS=325.04450196799996
RECORD_DATE=2016.01.19 (Created 2007.08.01, modified 2011.05.06)
93.0 0.01201201
127.0 0.01601602
129.0 1.0
130.0 0.01601602
134.0 0.03103103
144.0 0.07107107
153.0 0.00800801
182.0 0.03103103
192.0 0.07107107
197.0 0.03903904
242.0 0.02002002
262.0 0.07807808
326.0 0.14914915
327.0 0.00800801
END IONS

BEGIN IONS
CHARGE=1+
INCHIKEY=RXCPQSJAVKGONC-UHFFFAOYSA-N
INSTRUMENT_TYPE=LC-ESI-QQ
INSTRUMENT=QuattroPremier XE, Waters
COLLISION_ENERGY=10 V
FORMULA=C12H9F2N5O2S
SMILES=CC(C=3)=Nc(n1)n(C3)nc1S(=O)(=O)Nc(c(F)2)c(F)ccc2
CAS=98967-40-9
INCHI=InChI=1S/C12H9F2N5O2S/c1-7-5-6-19-11(15-7)16-12(17-19)22(20,21)18-10-8(13)3-2-4-9(10)14/h2-6,18H,1H3
AUTHOR=Nihon Waters K.K.
LICENSE=CC BY-NC
SPLASH=splash10-004i-0009000000-e36525a36175bbde809c
SUBMITTER=submitter = Nihon Waters (Nihon Waters K.K.)
SYNON_$=00in-source
COMPUTED_SMILES=O=S(=O)(NC=1C(F)=CC=CC1F)C=2N=C3N=C(C=CN3N2)C
COMPUTED_[2M+H-H2O]+=633.0816339359999
COMPUTED_[2M+K]+=689.1873039359999
COMPUTED_[M+H]+=326.05247196799996
COMPUTED_[2M+NA]+=673.078773936
COMPUTED_[2M+CL]-=685.5420039359999
COMPUTED_[2M+HAC-H]-=709.133033936
COMPUTED_[M-H20-H]-=306.02611196799995
COMPUTED_[M-H]-=324.037225968
COMPUTED_[2M-H]-=649.0817279359999
COMPUTED_[M+NA]+=348.034271968
COMPUTED_[M+H-H2O]+=308.037131968
COMPUTED_[2M+NH4]+=668.127583936
COMPUTED_[M+CL]-=360.49750196799994
COMPUTED_[M+NH4]+=343.083081968
COMPUTED_[M+K]+=364.14280196799996
COMPUTED_[2M+H]+=651.0969739359999
COMPUTED_[M+HAC-H]-=384.088531968
COMPUTED_MASS_ERROR=-0.052471967999963454
FIND_PEAK=ignore rel.int. < 5
COMPUTED_SPECTRAL_ENTROPY=0.24063716291625004
COMPUTED_NORMALIZED_ENTROPY=0.2190373850705637
COMPUTED_MASS_ACCURACY=160.9569570551026
MONA_RATING=4.545454545454546
NUM_PEAKS=3
COMPOUND_NAME=Flumetsulam
SPECTRUM_ID=WA000239
ADDUCT=[M+H]+
MS_LEVEL=MS2
PRECURSOR_MZ=326.0
IONMODE=positive
NOMINAL_MASS=325
PARENT_MASS=325.04450196799996
RECORD_DATE=2016.01.19 (Created 2007.08.01, modified 2011.05.06)
129.0 0.02402402
326.0 1.0
327.0 0.03103103
END IONS

BEGIN IONS
CHARGE=1+
INCHIKEY=GOCUAJYOYBLQRH-UHFFFAOYSA-N
INSTRUMENT_TYPE=LC-ESI-QQ
INSTRUMENT=QuattroPremier XE, Waters
COLLISION_ENERGY=40 V
FORMULA=C15H11ClF3NO4
SMILES=OC(=O)C(C)Oc(c2)ccc(c2)Oc(n1)c(Cl)cc(c1)C(F)(F)F
CAS=69806-34-4
INCHI=InChI=1S/C15H11ClF3NO4/c1-8(14(21)22)23-10-2-4-11(5-3-10)24-13-12(16)6-9(7-20-13)15(17,18)19/h2-8H,1H3,(H,21,22)
AUTHOR=Nihon Waters K.K.
LICENSE=CC BY-NC
SPLASH=splash10-0006-9270000000-1da07b3813baee20c167
SUBMITTER=submitter = Nihon Waters (Nihon Waters K.K.)
SYNON_$=00in-source
COMPUTED_SMILES=O=C(O)C(OC1=CC=C(OC2=NC=C(C=C2CL)C(F)(F)F)C=C1)C
COMPUTED_[2M+H-H2O]+=705.0583703440001
COMPUTED_[2M+K]+=761.1640403440001
COMPUTED_[M+H]+=362.04084017200006
COMPUTED_[2M+NA]+=745.0555103440001
COMPUTED_[2M+CL]-=757.5187403440001
COMPUTED_[2M+HAC-H]-=781.1097703440001
COMPUTED_[M-H20-H]-=342.01448017200005
COMPUTED_[M-H]-=360.02559417200007
COMPUTED_[2M-H]-=721.0584643440001
COMPUTED_[M+NA]+=384.0226401720001
COMPUTED_[M+H-H2O]+=344.0255001720001
COMPUTED_[2M+NH4]+=740.1043203440001
COMPUTED_[M+CL]-=396.4858701720001
COMPUTED_[M+NH4]+=379.0714501720001
COMPUTED_[M+K]+=400.13117017200005
COMPUTED_[2M+H]+=723.0737103440001
COMPUTED_[M+HAC-H]-=420.0769001720001
FIND_PEAK=ignore rel.int. < 5
COMPUTED_SPECTRAL_ENTROPY=2.716286494281625
COMPUTED_NORMALIZED_ENTROPY=0.7016650612117374
COMPUTED_MASS_ACCURACY=112.81815469629761
COMPUTED_MASS_ERROR=-0.04084017200005974
MONA_RATING=4.545454545454546
NUM_PEAKS=48
COMPOUND_NAME=Haloxyfop
SPECTRUM_ID=WA000238
ADDUCT=[M+H]+
MS_LEVEL=MS2
PRECURSOR_MZ=362.0
IONMODE=positive
NOMINAL_MASS=361
PARENT_MASS=361.03287017200006
RECORD_DATE=2016.01.19 (Created 2007.08.01, modified 2011.05.06)
55.0 0.01201201
63.0 0.01201201
65.0 0.18818819
69.0 0.00800801
73.0 0.01201201
75.0 0.055055059999999996
76.0 0.01601602
81.0 0.02002002
91.0 1.0
92.0 0.13313313000000002
94.0 0.02402402
107.0 0.00800801
109.0 0.02702703
119.0 0.05905906
121.0 0.05105105
139.0 0.01201201
141.0 0.00800801
155.0 0.00800801
159.0 0.00800801
175.0 0.02002002
178.0 0.01201201
180.0 0.05905906
182.0 0.01601602
189.0 0.01201201
190.0 0.00800801
192.0 0.00800801
198.0 0.02402402
203.0 0.02002002
206.0 0.02002002
209.0 0.08608608999999999
216.0 0.05105105
218.0 0.01601602
219.0 0.02002002
222.0 0.01201201
224.0 0.01201201
226.0 0.05105105
232.0 0.03103103
235.0 0.01601602
237.0 0.03903904
245.0 0.02002002
252.0 0.02702703
254.0 0.02002002
261.0 0.02702703
270.0 0.00800801
272.0 0.34534535
273.0 0.01201201
288.0 0.32132131999999997
289.0 0.01601602
END IONS

BEGIN IONS
CHARGE=1+
INCHIKEY=GOCUAJYOYBLQRH-UHFFFAOYSA-N
INSTRUMENT_TYPE=LC-ESI-QQ
INSTRUMENT=QuattroPremier XE, Waters
COLLISION_ENERGY=30 V
FORMULA=C15H11ClF3NO4
SMILES=OC(=O)C(C)Oc(c2)ccc(c2)Oc(n1)c(Cl)cc(c1)C(F)(F)F
CAS=69806-34-4
INCHI=InChI=1S/C15H11ClF3NO4/c1-8(14(21)22)23-10-2-4-11(5-3-10)24-13-12(16)6-9(7-20-13)15(17,18)19/h2-8H,1H3,(H,21,22)
AUTHOR=Nihon Waters K.K.
LICENSE=CC BY-NC
SPLASH=splash10-0006-9260000000-013cf65d43d31215fe6a
SUBMITTER=submitter = Nihon Waters (Nihon Waters K.K.)
SYNON_$=00in-source
COMPUTED_SMILES=O=C(O)C(OC1=CC=C(OC2=NC=C(C=C2CL)C(F)(F)F)C=C1)C
COMPUTED_[2M+H-H2O]+=705.058370344
COMPUTED_[2M+K]+=761.164040344
COMPUTED_[M+H]+=362.040840172
COMPUTED_[2M+NA]+=745.055510344
COMPUTED_[2M+CL]-=757.518740344
COMPUTED_[2M+HAC-H]-=781.109770344
COMPUTED_[M-H20-H]-=342.014480172
COMPUTED_[M-H]-=360.025594172
COMPUTED_[2M-H]-=721.058464344
COMPUTED_[M+NA]+=384.022640172
COMPUTED_[M+H-H2O]+=344.025500172
COMPUTED_[2M+NH4]+=740.104320344
COMPUTED_[M+CL]-=396.485870172
COMPUTED_[M+NH4]+=379.071450172
COMPUTED_[M+K]+=400.131170172
COMPUTED_[2M+H]+=723.073710344
COMPUTED_[M+HAC-H]-=420.076900172
FIND_PEAK=ignore rel.int. < 5
COMPUTED_SPECTRAL_ENTROPY=2.138152555609246
COMPUTED_NORMALIZED_ENTROPY=0.6487434428759853
COMPUTED_MASS_ACCURACY=112.8181546961406
COMPUTED_MASS_ERROR=-0.040840172000002894
MONA_RATING=4.545454545454546
NUM_PEAKS=27
COMPOUND_NAME=Haloxyfop
SPECTRUM_ID=WA000237
ADDUCT=[M+H]+
MS_LEVEL=MS2
PRECURSOR_MZ=362.0
IONMODE=positive
NOMINAL_MASS=361
PARENT_MASS=361.032870172
RECORD_DATE=2016.01.19 (Created 2007.08.01, modified 2011.05.06)
55.0 0.00800801
65.0 0.05905906
72.0 0.00800801
91.0 1.0
92.0 0.09009009000000001
109.0 0.01201201
119.0 0.14514515
121.0 0.10610611
198.0 0.02002002
206.0 0.00800801
209.0 0.00800801
219.0 0.02002002
226.0 0.01201201
232.0 0.01601602
235.0 0.00800801
245.0 0.01201201
247.0 0.03103103
249.0 0.00800801
252.0 0.01601602
253.0 0.00800801
260.0 0.03103103
270.0 0.01201201
272.0 0.25925926
273.0 0.01201201
288.0 0.31331331
290.0 0.06706706999999999
316.0 0.06706706999999999
END IONS

BEGIN IONS
CHARGE=1+
INCHIKEY=GOCUAJYOYBLQRH-UHFFFAOYSA-N
INSTRUMENT_TYPE=LC-ESI-QQ
INSTRUMENT=QuattroPremier XE, Waters
COLLISION_ENERGY=20 V
FORMULA=C15H11ClF3NO4
SMILES=OC(=O)C(C)Oc(c2)ccc(c2)Oc(n1)c(Cl)cc(c1)C(F)(F)F
CAS=69806-34-4
INCHI=InChI=1S/C15H11ClF3NO4/c1-8(14(21)22)23-10-2-4-11(5-3-10)24-13-12(16)6-9(7-20-13)15(17,18)19/h2-8H,1H3,(H,21,22)
AUTHOR=Nihon Waters K.K.
LICENSE=CC BY-NC
SPLASH=splash10-014i-2139000000-230078ddefef3e90cf7d
SUBMITTER=submitter = Nihon Waters (Nihon Waters K.K.)
SYNON_$=00in-source
COMPUTED_SMILES=O=C(O)C(OC1=CC=C(OC2=NC=C(C=C2CL)C(F)(F)F)C=C1)C
COMPUTED_[2M+H-H2O]+=705.058370344
COMPUTED_[2M+K]+=761.164040344
COMPUTED_[M+H]+=362.040840172
COMPUTED_[2M+NA]+=745.055510344
COMPUTED_[2M+CL]-=757.518740344
COMPUTED_[2M+HAC-H]-=781.109770344
COMPUTED_[M-H20-H]-=342.014480172
COMPUTED_[M-H]-=360.025594172
COMPUTED_[2M-H]-=721.058464344
COMPUTED_[M+NA]+=384.022640172
COMPUTED_[M+H-H2O]+=344.025500172
COMPUTED_[2M+NH4]+=740.104320344
COMPUTED_[M+CL]-=396.485870172
COMPUTED_[M+NH4]+=379.071450172
COMPUTED_[M+K]+=400.131170172
COMPUTED_[2M+H]+=723.073710344
COMPUTED_[M+HAC-H]-=420.076900172
FIND_PEAK=ignore rel.int. < 5
COMPUTED_SPECTRAL_ENTROPY=1.706246722074537
COMPUTED_NORMALIZED_ENTROPY=0.6465364366765335
COMPUTED_MASS_ACCURACY=112.8181546961406
COMPUTED_MASS_ERROR=-0.040840172000002894
MONA_RATING=4.545454545454546
NUM_PEAKS=14
COMPOUND_NAME=Haloxyfop
SPECTRUM_ID=WA000236
ADDUCT=[M+H]+
MS_LEVEL=MS2
PRECURSOR_MZ=362.0
IONMODE=positive
NOMINAL_MASS=361
PARENT_MASS=361.032870172
RECORD_DATE=2016.01.19 (Created 2007.08.01, modified 2011.05.06)
91.0 0.31731732
92.0 0.02002002
118.0 0.07407407
120.0 0.08608608999999999
198.0 0.00800801
247.0 0.01601602
260.0 0.00800801
272.0 0.02002002
288.0 0.33733734
290.0 0.04704705
316.0 1.0
317.0 0.055055059999999996
362.0 0.11411410999999999
363.0 0.00800801
END IONS

BEGIN IONS
CHARGE=1+
INCHIKEY=GOCUAJYOYBLQRH-UHFFFAOYSA-N
INSTRUMENT_TYPE=LC-ESI-QQ
INSTRUMENT=QuattroPremier XE, Waters
COLLISION_ENERGY=10 V
FORMULA=C15H11ClF3NO4
SMILES=OC(=O)C(C)Oc(c2)ccc(c2)Oc(n1)c(Cl)cc(c1)C(F)(F)F
CAS=69806-34-4
INCHI=InChI=1S/C15H11ClF3NO4/c1-8(14(21)22)23-10-2-4-11(5-3-10)24-13-12(16)6-9(7-20-13)15(17,18)19/h2-8H,1H3,(H,21,22)
AUTHOR=Nihon Waters K.K.
LICENSE=CC BY-NC
SPLASH=splash10-03di-0009000000-c1f6d79fedfaafcc29c4
SUBMITTER=submitter = Nihon Waters (Nihon Waters K.K.)
SYNON_$=00in-source
COMPUTED_SMILES=O=C(O)C(OC1=CC=C(OC2=NC=C(C=C2CL)C(F)(F)F)C=C1)C
COMPUTED_[2M+H-H2O]+=705.058370344
COMPUTED_[2M+K]+=761.164040344
COMPUTED_[M+H]+=362.040840172
COMPUTED_[2M+NA]+=745.055510344
COMPUTED_[2M+CL]-=757.518740344
COMPUTED_[2M+HAC-H]-=781.109770344
COMPUTED_[M-H20-H]-=342.014480172
COMPUTED_[M-H]-=360.025594172
COMPUTED_[2M-H]-=721.058464344
COMPUTED_[M+NA]+=384.022640172
COMPUTED_[M+H-H2O]+=344.025500172
COMPUTED_[2M+NH4]+=740.104320344
COMPUTED_[M+CL]-=396.485870172
COMPUTED_[M+NH4]+=379.071450172
COMPUTED_[M+K]+=400.131170172
COMPUTED_[2M+H]+=723.073710344
COMPUTED_[M+HAC-H]-=420.076900172
FIND_PEAK=ignore rel.int. < 5
COMPUTED_SPECTRAL_ENTROPY=0.3883285922680766
COMPUTED_NORMALIZED_ENTROPY=0.35347191750318246
COMPUTED_MASS_ACCURACY=112.8181546961406
COMPUTED_MASS_ERROR=-0.040840172000002894
MONA_RATING=4.545454545454546
NUM_PEAKS=3
COMPOUND_NAME=Haloxyfop
SPECTRUM_ID=WA000235
ADDUCT=[M+H]+
MS_LEVEL=MS2
PRECURSOR_MZ=362.0
IONMODE=positive
NOMINAL_MASS=361
PARENT_MASS=361.032870172
RECORD_DATE=2016.01.19 (Created 2007.08.01, modified 2011.05.06)
316.0 0.08208208
362.0 1.0
363.0 0.03103103
END IONS

BEGIN IONS
CHARGE=1+
INCHIKEY=IMEVJVISCHQJRM-UHFFFAOYSA-N
INSTRUMENT_TYPE=LC-ESI-QQ
INSTRUMENT=QuattroPremier XE, Waters
COLLISION_ENERGY=60 V
FORMULA=C17H19F3N6O6S
SMILES=COC(=O)c(c2)c(c(C)cc2)S(=O)(=O)NC(=O)Nc(n1)nc(OCC(F)(F)F)nc(N(C)C)1
CAS=126535-15-7
INCHI=InChI=1S/C17H19F3N6O6S/c1-9-6-5-7-10(12(27)31-4)11(9)33(29,30)25-15(28)22-13-21-14(26(2)3)24-16(23-13)32-8-17(18,19)20/h5-7H,8H2,1-4H3,(H2,21,22,23,24,25,28)
AUTHOR=Nihon Waters K.K.
LICENSE=CC BY-NC
SPLASH=splash10-0002-9100000000-55dda0c0366ce773bc3f
SUBMITTER=submitter = Nihon Waters (Nihon Waters K.K.)
SYNON_$=00in-source
COMPUTED_SMILES=O=C(OC)C1=CC=CC(=C1S(=O)(=O)NC(O)=NC=2N=C(N=C(N2)N(C)C)OCC(F)(F)F)C
COMPUTED_[2M+H-H2O]+=967.200405976
COMPUTED_[2M+K]+=1023.306075976
COMPUTED_[M+H]+=493.111857988
COMPUTED_[2M+NA]+=1007.197545976
COMPUTED_[2M+CL]-=1019.660775976
COMPUTED_[2M+HAC-H]-=1043.251805976
COMPUTED_[M-H20-H]-=473.085497988
COMPUTED_[M-H]-=491.096611988
COMPUTED_[2M-H]-=983.200499976
COMPUTED_[M+NA]+=515.093657988
COMPUTED_[M+H-H2O]+=475.096517988
COMPUTED_[2M+NH4]+=1002.246355976
COMPUTED_[M+CL]-=527.556887988
COMPUTED_[M+NH4]+=510.142467988
COMPUTED_[M+K]+=531.202187988
COMPUTED_[2M+H]+=985.215745976
COMPUTED_[M+HAC-H]-=551.147917988
FIND_PEAK=ignore rel.int. < 5
COMPUTED_SPECTRAL_ENTROPY=1.3748861214297392
COMPUTED_NORMALIZED_ENTROPY=0.475677953077734
COMPUTED_MASS_ACCURACY=178.7145417680284
COMPUTED_MASS_ERROR=0.08814201199999161
MONA_RATING=4.545454545454546
NUM_PEAKS=18
COMPOUND_NAME=Triflusulfuron-methyl
SPECTRUM_ID=WA000234
ADDUCT=[M+H]+
MS_LEVEL=MS2
PRECURSOR_MZ=493.2
IONMODE=positive
NOMINAL_MASS=492
PARENT_MASS=492.103887988
RECORD_DATE=2016.01.19 (Created 2007.08.01, modified 2011.05.06)
55.0 0.00800801
69.0 0.00800801
71.0 0.16816817
80.0 0.00800801
83.0 0.02002002
91.0 0.05905906
96.0 1.0
97.0 0.02002002
104.0 0.01201201
106.0 0.02002002
126.0 0.01201201
134.0 0.01201201
138.0 0.00800801
149.0 0.01201201
151.0 0.05105105
152.0 0.00800801
176.0 0.02702703
264.0 0.02702703
END IONS

BEGIN IONS
CHARGE=1+
INCHIKEY=IMEVJVISCHQJRM-UHFFFAOYSA-N
INSTRUMENT_TYPE=LC-ESI-QQ
INSTRUMENT=QuattroPremier XE, Waters
COLLISION_ENERGY=50 V
FORMULA=C17H19F3N6O6S
SMILES=COC(=O)c(c2)c(c(C)cc2)S(=O)(=O)NC(=O)Nc(n1)nc(OCC(F)(F)F)nc(N(C)C)1
CAS=126535-15-7
INCHI=InChI=1S/C17H19F3N6O6S/c1-9-6-5-7-10(12(27)31-4)11(9)33(29,30)25-15(28)22-13-21-14(26(2)3)24-16(23-13)32-8-17(18,19)20/h5-7H,8H2,1-4H3,(H2,21,22,23,24,25,28)
AUTHOR=Nihon Waters K.K.
LICENSE=CC BY-NC
SPLASH=splash10-0002-9120000000-4fc0cd581ba7ba154dc8
SUBMITTER=submitter = Nihon Waters (Nihon Waters K.K.)
SYNON_$=00in-source
COMPUTED_[2M+NA]+=1007.197545976
COMPUTED_[2M+CL]-=1019.660775976
COMPUTED_SMILES=O=C(OC)C1=CC=CC(=C1S(=O)(=O)NC(O)=NC=2N=C(N=C(N2)N(C)C)OCC(F)(F)F)C
COMPUTED_[2M+H-H2O]+=967.200405976
COMPUTED_[2M+K]+=1023.306075976
COMPUTED_[M+H]+=493.111857988
COMPUTED_[2M+HAC-H]-=1043.251805976
COMPUTED_[M-H20-H]-=473.085497988
COMPUTED_[M-H]-=491.096611988
COMPUTED_[2M-H]-=983.200499976
COMPUTED_[M+NA]+=515.093657988
COMPUTED_[M+H-H2O]+=475.096517988
COMPUTED_[2M+NH4]+=1002.246355976
COMPUTED_[M+CL]-=527.556887988
COMPUTED_[M+NH4]+=510.142467988
COMPUTED_[M+K]+=531.202187988
COMPUTED_[2M+H]+=985.215745976
COMPUTED_[M+HAC-H]-=551.147917988
FIND_PEAK=ignore rel.int. < 5
COMPUTED_SPECTRAL_ENTROPY=1.6791151221079177
COMPUTED_NORMALIZED_ENTROPY=0.5515200352287419
COMPUTED_MASS_ACCURACY=178.7145417680284
COMPUTED_MASS_ERROR=0.08814201199999161
MONA_RATING=4.545454545454546
NUM_PEAKS=21
COMPOUND_NAME=Triflusulfuron-methyl
SPECTRUM_ID=WA000233
ADDUCT=[M+H]+
MS_LEVEL=MS2
PRECURSOR_MZ=493.2
IONMODE=positive
NOMINAL_MASS=492
PARENT_MASS=492.103887988
RECORD_DATE=2016.01.19 (Created 2007.08.01, modified 2011.05.06)
69.0 0.00800801
71.0 0.15715716000000002
91.0 0.04704705
93.0 0.00800801
96.0 1.0
97.0 0.01201201
106.0 0.00800801
114.0 0.00800801
133.0 0.00800801
138.0 0.02402402
149.0 0.043043040000000005
151.0 0.07407407
153.0 0.01601602
166.0 0.00800801
176.0 0.05105105
182.0 0.00800801
221.0 0.00800801
238.0 0.01601602
244.0 0.01201201
264.0 0.30230229999999997
265.0 0.01201201
END IONS

BEGIN IONS
CHARGE=1+
INCHIKEY=IMEVJVISCHQJRM-UHFFFAOYSA-N
INSTRUMENT_TYPE=LC-ESI-QQ
INSTRUMENT=QuattroPremier XE, Waters
COLLISION_ENERGY=40 V
FORMULA=C17H19F3N6O6S
SMILES=COC(=O)c(c2)c(c(C)cc2)S(=O)(=O)NC(=O)Nc(n1)nc(OCC(F)(F)F)nc(N(C)C)1
CAS=126535-15-7
INCHI=InChI=1S/C17H19F3N6O6S/c1-9-6-5-7-10(12(27)31-4)11(9)33(29,30)25-15(28)22-13-21-14(26(2)3)24-16(23-13)32-8-17(18,19)20/h5-7H,8H2,1-4H3,(H2,21,22,23,24,25,28)
AUTHOR=Nihon Waters K.K.
LICENSE=CC BY-NC
SPLASH=splash10-03dj-5190000000-f2863b99f5c6600f38c2
SUBMITTER=submitter = Nihon Waters (Nihon Waters K.K.)
SYNON_$=00in-source
COMPUTED_SMILES=O=C(OC)C1=CC=CC(=C1S(=O)(=O)NC(O)=NC=2N=C(N=C(N2)N(C)C)OCC(F)(F)F)C
COMPUTED_[2M+H-H2O]+=967.2004059760001
COMPUTED_[2M+K]+=1023.3060759760001
COMPUTED_[M+H]+=493.11185798800005
COMPUTED_[2M+NA]+=1007.1975459760001
COMPUTED_[2M+CL]-=1019.6607759760001
COMPUTED_[2M+HAC-H]-=1043.251805976
COMPUTED_[M-H20-H]-=473.08549798800004
COMPUTED_[M-H]-=491.09661198800006
COMPUTED_[2M-H]-=983.2004999760001
COMPUTED_[M+NA]+=515.093657988
COMPUTED_[M+H-H2O]+=475.0965179880001
COMPUTED_[2M+NH4]+=1002.2463559760001
COMPUTED_[M+CL]-=527.5568879880001
COMPUTED_[M+NH4]+=510.1424679880001
COMPUTED_[M+K]+=531.2021879880001
COMPUTED_[2M+H]+=985.2157459760001
COMPUTED_[M+HAC-H]-=551.147917988
FIND_PEAK=ignore rel.int. < 5
COMPUTED_SPECTRAL_ENTROPY=1.4828547860573875
COMPUTED_NORMALIZED_ENTROPY=0.5348268115508644
COMPUTED_MASS_ACCURACY=178.71454176791315
COMPUTED_MASS_ERROR=0.08814201199993477
MONA_RATING=4.545454545454546
NUM_PEAKS=16
COMPOUND_NAME=Triflusulfuron-methyl
SPECTRUM_ID=WA000232
ADDUCT=[M+H]+
MS_LEVEL=MS2
PRECURSOR_MZ=493.2
IONMODE=positive
NOMINAL_MASS=492
PARENT_MASS=492.10388798800005
RECORD_DATE=2016.01.19 (Created 2007.08.01, modified 2011.05.06)
71.0 0.11011011
91.0 0.01601602
96.0 0.55655656
134.0 0.00800801
138.0 0.01601602
149.0 0.03903904
151.0 0.035035039999999996
153.0 0.00800801
164.0 0.00800801
176.0 0.02702703
213.0 0.00800801
221.0 0.02402402
238.0 0.043043040000000005
244.0 0.02002002
264.0 1.0
265.0 0.02402402
END IONS

BEGIN IONS
CHARGE=1+
INCHIKEY=IMEVJVISCHQJRM-UHFFFAOYSA-N
INSTRUMENT_TYPE=LC-ESI-QQ
INSTRUMENT=QuattroPremier XE, Waters
COLLISION_ENERGY=30 V
FORMULA=C17H19F3N6O6S
CAS=126535-15-7
SMILES=COC(=O)c(c2)c(c(C)cc2)S(=O)(=O)NC(=O)Nc(n1)nc(OCC(F)(F)F)nc(N(C)C)1
INCHI=InChI=1S/C17H19F3N6O6S/c1-9-6-5-7-10(12(27)31-4)11(9)33(29,30)25-15(28)22-13-21-14(26(2)3)24-16(23-13)32-8-17(18,19)20/h5-7H,8H2,1-4H3,(H2,21,22,23,24,25,28)
AUTHOR=Nihon Waters K.K.
LICENSE=CC BY-NC
SPLASH=splash10-03di-0090000000-14dff84529a342b67989
SUBMITTER=submitter = Nihon Waters (Nihon Waters K.K.)
SYNON_$=00in-source
COMPUTED_SMILES=O=C(OC)C1=CC=CC(=C1S(=O)(=O)NC(O)=NC=2N=C(N=C(N2)N(C)C)OCC(F)(F)F)C
COMPUTED_[2M+H-H2O]+=967.200405976
COMPUTED_[2M+K]+=1023.306075976
COMPUTED_[M+H]+=493.111857988
COMPUTED_[2M+NA]+=1007.197545976
COMPUTED_[2M+CL]-=1019.660775976
COMPUTED_[2M+HAC-H]-=1043.251805976
COMPUTED_[M-H20-H]-=473.085497988
COMPUTED_[M-H]-=491.096611988
COMPUTED_[2M-H]-=983.200499976
COMPUTED_[M+NA]+=515.093657988
COMPUTED_[M+H-H2O]+=475.096517988
COMPUTED_[2M+NH4]+=1002.246355976
COMPUTED_[M+CL]-=527.556887988
COMPUTED_[M+NH4]+=510.142467988
COMPUTED_[M+K]+=531.202187988
COMPUTED_[2M+H]+=985.215745976
COMPUTED_[M+HAC-H]-=551.147917988
FIND_PEAK=ignore rel.int. < 5
COMPUTED_SPECTRAL_ENTROPY=0.6405407709652288
COMPUTED_NORMALIZED_ENTROPY=0.3291728404192732
COMPUTED_MASS_ACCURACY=178.7145417680284
COMPUTED_MASS_ERROR=0.08814201199999161
MONA_RATING=4.545454545454546
NUM_PEAKS=7
COMPOUND_NAME=Triflusulfuron-methyl
SPECTRUM_ID=WA000231
ADDUCT=[M+H]+
MS_LEVEL=MS2
PRECURSOR_MZ=493.2
IONMODE=positive
NOMINAL_MASS=492
PARENT_MASS=492.103887988
RECORD_DATE=2016.01.19 (Created 2007.08.01, modified 2011.05.06)
71.0 0.00800801
96.0 0.06306306
149.0 0.01201201
213.0 0.01601602
238.0 0.04704705
264.0 1.0
265.0 0.02402402
END IONS

BEGIN IONS
CHARGE=1+
INCHIKEY=IMEVJVISCHQJRM-UHFFFAOYSA-N
INSTRUMENT_TYPE=LC-ESI-QQ
INSTRUMENT=QuattroPremier XE, Waters
COLLISION_ENERGY=20 V
FORMULA=C17H19F3N6O6S
SMILES=COC(=O)c(c2)c(c(C)cc2)S(=O)(=O)NC(=O)Nc(n1)nc(OCC(F)(F)F)nc(N(C)C)1
CAS=126535-15-7
INCHI=InChI=1S/C17H19F3N6O6S/c1-9-6-5-7-10(12(27)31-4)11(9)33(29,30)25-15(28)22-13-21-14(26(2)3)24-16(23-13)32-8-17(18,19)20/h5-7H,8H2,1-4H3,(H2,21,22,23,24,25,28)
AUTHOR=Nihon Waters K.K.
LICENSE=CC BY-NC
SPLASH=splash10-03di-0090000000-c7703c4a5b1c07ee5414
SUBMITTER=submitter = Nihon Waters (Nihon Waters K.K.)
SYNON_$=00in-source
COMPUTED_SMILES=O=C(OC)C1=CC=CC(=C1S(=O)(=O)NC(O)=NC=2N=C(N=C(N2)N(C)C)OCC(F)(F)F)C
COMPUTED_[2M+H-H2O]+=967.200405976
COMPUTED_[2M+K]+=1023.306075976
COMPUTED_[M+H]+=493.111857988
COMPUTED_[2M+NA]+=1007.197545976
COMPUTED_[2M+CL]-=1019.660775976
COMPUTED_[2M+HAC-H]-=1043.251805976
COMPUTED_[M-H20-H]-=473.085497988
COMPUTED_[M-H]-=491.096611988
COMPUTED_[2M-H]-=983.200499976
COMPUTED_[M+NA]+=515.093657988
COMPUTED_[M+H-H2O]+=475.096517988
COMPUTED_[2M+NH4]+=1002.246355976
COMPUTED_[M+CL]-=527.556887988
COMPUTED_[M+NH4]+=510.142467988
COMPUTED_[M+K]+=531.202187988
COMPUTED_[2M+H]+=985.215745976
COMPUTED_[M+HAC-H]-=551.147917988
FIND_PEAK=ignore rel.int. < 5
COMPUTED_SPECTRAL_ENTROPY=0.33980240013726365
COMPUTED_NORMALIZED_ENTROPY=0.21113110205248575
COMPUTED_MASS_ACCURACY=178.7145417680284
COMPUTED_MASS_ERROR=0.08814201199999161
MONA_RATING=4.545454545454546
NUM_PEAKS=5
COMPOUND_NAME=Triflusulfuron-methyl
SPECTRUM_ID=WA000230
ADDUCT=[M+H]+
MS_LEVEL=MS2
PRECURSOR_MZ=493.2
IONMODE=positive
NOMINAL_MASS=492
PARENT_MASS=492.103887988
RECORD_DATE=2016.01.19 (Created 2007.08.01, modified 2011.05.06)
213.0 0.00800801
238.0 0.035035039999999996
264.0 1.0
265.0 0.02002002
493.0 0.01201201
END IONS

BEGIN IONS
CHARGE=1+
INCHIKEY=IMEVJVISCHQJRM-UHFFFAOYSA-N
INSTRUMENT_TYPE=LC-ESI-QQ
INSTRUMENT=QuattroPremier XE, Waters
COLLISION_ENERGY=10 V
FORMULA=C17H19F3N6O6S
SMILES=COC(=O)c(c2)c(c(C)cc2)S(=O)(=O)NC(=O)Nc(n1)nc(OCC(F)(F)F)nc(N(C)C)1
CAS=126535-15-7
INCHI=InChI=1S/C17H19F3N6O6S/c1-9-6-5-7-10(12(27)31-4)11(9)33(29,30)25-15(28)22-13-21-14(26(2)3)24-16(23-13)32-8-17(18,19)20/h5-7H,8H2,1-4H3,(H2,21,22,23,24,25,28)
AUTHOR=Nihon Waters K.K.
LICENSE=CC BY-NC
SPLASH=splash10-0006-0010900000-146f77a5eeb6666118d3
SUBMITTER=submitter = Nihon Waters (Nihon Waters K.K.)
SYNON_$=00in-source
COMPUTED_SMILES=O=C(OC)C1=CC=CC(=C1S(=O)(=O)NC(O)=NC=2N=C(N=C(N2)N(C)C)OCC(F)(F)F)C
COMPUTED_[2M+H-H2O]+=967.2004059760001
COMPUTED_[2M+K]+=1023.3060759760001
COMPUTED_[M+H]+=493.11185798800005
COMPUTED_[2M+NA]+=1007.1975459760001
COMPUTED_[2M+CL]-=1019.6607759760001
COMPUTED_[2M+HAC-H]-=1043.251805976
COMPUTED_[M-H20-H]-=473.08549798800004
COMPUTED_[M-H]-=491.09661198800006
COMPUTED_[2M-H]-=983.2004999760001
COMPUTED_[M+NA]+=515.093657988
COMPUTED_[M+H-H2O]+=475.0965179880001
COMPUTED_[2M+NH4]+=1002.2463559760001
COMPUTED_[M+CL]-=527.5568879880001
COMPUTED_[M+NH4]+=510.1424679880001
COMPUTED_[M+K]+=531.2021879880001
COMPUTED_[2M+H]+=985.2157459760001
COMPUTED_[M+HAC-H]-=551.147917988
FIND_PEAK=ignore rel.int. < 5
COMPUTED_SPECTRAL_ENTROPY=0.792139371597507
COMPUTED_NORMALIZED_ENTROPY=0.5714077715483116
COMPUTED_MASS_ACCURACY=178.71454176791315
COMPUTED_MASS_ERROR=0.08814201199993477
MONA_RATING=4.545454545454546
NUM_PEAKS=4
COMPOUND_NAME=Triflusulfuron-methyl
SPECTRUM_ID=WA000229
ADDUCT=[M+H]+
MS_LEVEL=MS2
PRECURSOR_MZ=493.2
IONMODE=positive
NOMINAL_MASS=492
PARENT_MASS=492.10388798800005
RECORD_DATE=2016.01.19 (Created 2007.08.01, modified 2011.05.06)
264.0 0.23523523999999998
461.0 0.08208208
493.0 1.0
495.0 0.035035039999999996
END IONS

BEGIN IONS
CHARGE=1+
INCHIKEY=AHTPATJNIAFOLR-UHFFFAOYSA-N
INSTRUMENT_TYPE=LC-ESI-QQ
INSTRUMENT=QuattroPremier XE, Waters
COLLISION_ENERGY=50 V
FORMULA=C12H13N5O6S2
SMILES=COc(n2)nc(nc(C)2)NC(=O)NS(=O)(=O)c(c1)c(sc1)C(=O)OC
CAS=79277-27-3
INCHI=InChI=1S/C12H13N5O6S2/c1-6-13-10(16-12(14-6)23-3)15-11(19)17-25(20,21)7-4-5-24-8(7)9(18)22-2/h4-5H,1-3H3,(H2,13,14,15,16,17,19)
AUTHOR=Nihon Waters K.K.
LICENSE=CC BY-NC
SPLASH=splash10-0a6r-9500000000-5c7078feab523931bd13
SUBMITTER=submitter = Nihon Waters (Nihon Waters K.K.)
SYNON_$=00in-source
COMPUTED_SMILES=O=C(OC)C=1SC=CC1S(=O)(=O)N=C(O)N=C2N=C(N=C(OC)N2)C
COMPUTED_[2M+H-H2O]+=757.054080272
COMPUTED_[2M+K]+=813.159750272
COMPUTED_[M+H]+=388.038695136
COMPUTED_[2M+NA]+=797.051220272
COMPUTED_[2M+CL]-=809.514450272
COMPUTED_[2M+HAC-H]-=833.105480272
COMPUTED_[M-H20-H]-=368.012335136
COMPUTED_[M-H]-=386.023449136
COMPUTED_[2M-H]-=773.054174272
COMPUTED_[M+NA]+=410.020495136
COMPUTED_[M+H-H2O]+=370.023355136
COMPUTED_[2M+NH4]+=792.100030272
COMPUTED_[M+CL]-=422.483725136
COMPUTED_[M+NH4]+=405.069305136
COMPUTED_[M+K]+=426.129025136
COMPUTED_[2M+H]+=775.069420272
COMPUTED_[M+HAC-H]-=446.074755136
FIND_PEAK=ignore rel.int. < 5
COMPUTED_SPECTRAL_ENTROPY=2.5563260592186356
COMPUTED_NORMALIZED_ENTROPY=0.7133563692898968
COMPUTED_MASS_ACCURACY=99.72973195876594
COMPUTED_MASS_ERROR=-0.038695136000001185
MONA_RATING=4.545454545454546
NUM_PEAKS=36
COMPOUND_NAME=Thifensulfuron-methyl
SPECTRUM_ID=WA000224
ADDUCT=[M+H]+
MS_LEVEL=MS2
PRECURSOR_MZ=388.0
IONMODE=positive
NOMINAL_MASS=387
PARENT_MASS=387.030725136
RECORD_DATE=2016.01.19 (Created 2007.08.01, modified 2011.05.06)
53.0 0.00800801
55.0 0.01201201
56.0 0.5725725700000001
58.0 0.69369369
59.0 0.01201201
64.0 0.00800801
67.0 0.02002002
69.0 0.32132131999999997
70.0 0.06306306
73.0 0.00800801
79.0 0.23523523999999998
81.0 0.01201201
83.0 0.50950951
85.0 0.08208208
87.0 0.02402402
95.0 0.01201201
96.0 0.00800801
98.0 0.25925926
100.0 0.02402402
103.0 0.01201201
108.0 0.00800801
109.0 0.01601602
111.0 0.043043040000000005
115.0 0.01201201
123.0 0.035035039999999996
126.0 1.0
127.0 0.00800801
141.0 0.18418418
144.0 0.00800801
152.0 0.01601602
167.0 0.22322322
175.0 0.043043040000000005
191.0 0.01601602
205.0 0.09009009000000001
207.0 0.01201201
216.0 0.00800801
END IONS

BEGIN IONS
CHARGE=1+
INCHIKEY=AHTPATJNIAFOLR-UHFFFAOYSA-N
INSTRUMENT_TYPE=LC-ESI-QQ
INSTRUMENT=QuattroPremier XE, Waters
COLLISION_ENERGY=40 V
FORMULA=C12H13N5O6S2
SMILES=COc(n2)nc(nc(C)2)NC(=O)NS(=O)(=O)c(c1)c(sc1)C(=O)OC
CAS=79277-27-3
INCHI=InChI=1S/C12H13N5O6S2/c1-6-13-10(16-12(14-6)23-3)15-11(19)17-25(20,21)7-4-5-24-8(7)9(18)22-2/h4-5H,1-3H3,(H2,13,14,15,16,17,19)
AUTHOR=Nihon Waters K.K.
LICENSE=CC BY-NC
SPLASH=splash10-0ar0-7910000000-f7e38cd271558e8f1d54
SUBMITTER=submitter = Nihon Waters (Nihon Waters K.K.)
SYNON_$=00in-source
COMPUTED_SMILES=O=C(OC)C=1SC=CC1S(=O)(=O)N=C(O)N=C2N=C(N=C(OC)N2)C
COMPUTED_[2M+H-H2O]+=757.054080272
COMPUTED_[2M+K]+=813.159750272
COMPUTED_[M+H]+=388.038695136
COMPUTED_[2M+NA]+=797.051220272
COMPUTED_[2M+CL]-=809.514450272
COMPUTED_[2M+HAC-H]-=833.105480272
COMPUTED_[M-H20-H]-=368.012335136
COMPUTED_[M-H]-=386.023449136
COMPUTED_[2M-H]-=773.054174272
COMPUTED_[M+NA]+=410.020495136
COMPUTED_[M+H-H2O]+=370.023355136
COMPUTED_[2M+NH4]+=792.100030272
COMPUTED_[M+CL]-=422.483725136
COMPUTED_[M+NH4]+=405.069305136
COMPUTED_[M+K]+=426.129025136
COMPUTED_[2M+H]+=775.069420272
COMPUTED_[M+HAC-H]-=446.074755136
COMPUTED_MASS_ACCURACY=99.72973195876594
COMPUTED_MASS_ERROR=-0.038695136000001185
FIND_PEAK=ignore rel.int. < 5
COMPUTED_SPECTRAL_ENTROPY=2.5887227102654893
COMPUTED_NORMALIZED_ENTROPY=0.753853336111546
MONA_RATING=4.545454545454546
NUM_PEAKS=31
COMPOUND_NAME=Thifensulfuron-methyl
SPECTRUM_ID=WA000223
ADDUCT=[M+H]+
MS_LEVEL=MS2
PRECURSOR_MZ=388.0
IONMODE=positive
NOMINAL_MASS=387
PARENT_MASS=387.030725136
RECORD_DATE=2016.01.19 (Created 2007.08.01, modified 2011.05.06)
56.0 0.5885885900000001
58.0 0.41141141
59.0 0.01601602
67.0 0.02702703
69.0 0.2002002
70.0 0.02002002
73.0 0.01601602
78.0 0.17217217
83.0 0.64664665
85.0 0.09409409
87.0 0.03103103
98.0 0.07407407
100.0 0.06306306
103.0 0.01601602
108.0 0.00800801
110.0 0.02402402
113.0 0.01601602
115.0 0.01601602
124.0 0.00800801
126.0 0.73773774
127.0 0.03103103
141.0 0.42742743
143.0 0.01201201
167.0 1.0
168.0 0.02402402
175.0 0.19219218999999998
190.0 0.03103103
205.0 0.45445445
207.0 0.043043040000000005
216.0 0.035035039999999996
251.0 0.00800801
END IONS

BEGIN IONS
CHARGE=1+
INCHIKEY=AHTPATJNIAFOLR-UHFFFAOYSA-N
INSTRUMENT_TYPE=LC-ESI-QQ
INSTRUMENT=QuattroPremier XE, Waters
COLLISION_ENERGY=30 V
FORMULA=C12H13N5O6S2
SMILES=COc(n2)nc(nc(C)2)NC(=O)NS(=O)(=O)c(c1)c(sc1)C(=O)OC
CAS=79277-27-3
INCHI=InChI=1S/C12H13N5O6S2/c1-6-13-10(16-12(14-6)23-3)15-11(19)17-25(20,21)7-4-5-24-8(7)9(18)22-2/h4-5H,1-3H3,(H2,13,14,15,16,17,19)
AUTHOR=Nihon Waters K.K.
LICENSE=CC BY-NC
SPLASH=splash10-014i-1920000000-857ff8caf49f68039197
SUBMITTER=submitter = Nihon Waters (Nihon Waters K.K.)
SYNON_$=00in-source
COMPUTED_SMILES=O=C(OC)C=1SC=CC1S(=O)(=O)N=C(O)N=C2N=C(N=C(OC)N2)C
COMPUTED_[2M+H-H2O]+=757.054080272
COMPUTED_[2M+K]+=813.159750272
COMPUTED_[M+H]+=388.038695136
COMPUTED_[2M+NA]+=797.051220272
COMPUTED_[2M+CL]-=809.514450272
COMPUTED_[2M+HAC-H]-=833.105480272
COMPUTED_[M-H20-H]-=368.012335136
COMPUTED_[M-H]-=386.023449136
COMPUTED_[2M-H]-=773.054174272
COMPUTED_[M+NA]+=410.020495136
COMPUTED_[M+H-H2O]+=370.023355136
COMPUTED_[2M+NH4]+=792.100030272
COMPUTED_[M+CL]-=422.483725136
COMPUTED_[M+NH4]+=405.069305136
COMPUTED_[M+K]+=426.129025136
COMPUTED_[2M+H]+=775.069420272
COMPUTED_[M+HAC-H]-=446.074755136
FIND_PEAK=ignore rel.int. < 5
COMPUTED_SPECTRAL_ENTROPY=1.6091340010927466
COMPUTED_NORMALIZED_ENTROPY=0.5803724108755803
COMPUTED_MASS_ACCURACY=99.72973195876594
COMPUTED_MASS_ERROR=-0.038695136000001185
MONA_RATING=4.545454545454546
NUM_PEAKS=16
COMPOUND_NAME=Thifensulfuron-methyl
SPECTRUM_ID=WA000222
ADDUCT=[M+H]+
MS_LEVEL=MS2
PRECURSOR_MZ=388.0
IONMODE=positive
NOMINAL_MASS=387
PARENT_MASS=387.030725136
RECORD_DATE=2016.01.19 (Created 2007.08.01, modified 2011.05.06)
56.0 0.09809810000000001
58.0 0.03103103
69.0 0.01601602
78.0 0.01201201
83.0 0.06306306
85.0 0.00800801
110.0 0.00800801
126.0 0.035035039999999996
141.0 0.17217217
167.0 1.0
168.0 0.02002002
175.0 0.043043040000000005
190.0 0.00800801
205.0 0.34934935
206.0 0.01201201
216.0 0.00800801
END IONS

BEGIN IONS
CHARGE=1+
INCHIKEY=AHTPATJNIAFOLR-UHFFFAOYSA-N
INSTRUMENT_TYPE=LC-ESI-QQ
INSTRUMENT=QuattroPremier XE, Waters
COLLISION_ENERGY=20 V
FORMULA=C12H13N5O6S2
SMILES=COc(n2)nc(nc(C)2)NC(=O)NS(=O)(=O)c(c1)c(sc1)C(=O)OC
CAS=79277-27-3
INCHI=InChI=1S/C12H13N5O6S2/c1-6-13-10(16-12(14-6)23-3)15-11(19)17-25(20,21)7-4-5-24-8(7)9(18)22-2/h4-5H,1-3H3,(H2,13,14,15,16,17,19)
AUTHOR=Nihon Waters K.K.
LICENSE=CC BY-NC
SPLASH=splash10-014i-0900000000-ba13b5a17308c0cec68f
SUBMITTER=submitter = Nihon Waters (Nihon Waters K.K.)
SYNON_$=00in-source
COMPUTED_SMILES=O=C(OC)C=1SC=CC1S(=O)(=O)N=C(O)N=C2N=C(N=C(OC)N2)C
COMPUTED_[2M+H-H2O]+=757.054080272
COMPUTED_[2M+K]+=813.159750272
COMPUTED_[M+H]+=388.038695136
COMPUTED_[2M+NA]+=797.051220272
COMPUTED_[2M+CL]-=809.514450272
COMPUTED_[2M+HAC-H]-=833.105480272
COMPUTED_[M-H20-H]-=368.012335136
COMPUTED_[M-H]-=386.023449136
COMPUTED_[2M-H]-=773.054174272
COMPUTED_[M+NA]+=410.020495136
COMPUTED_[M+H-H2O]+=370.023355136
COMPUTED_[2M+NH4]+=792.100030272
COMPUTED_[M+CL]-=422.483725136
COMPUTED_[M+NH4]+=405.069305136
COMPUTED_[M+K]+=426.129025136
COMPUTED_[2M+H]+=775.069420272
COMPUTED_[M+HAC-H]-=446.074755136
FIND_PEAK=ignore rel.int. < 5
COMPUTED_SPECTRAL_ENTROPY=0.7070538630578986
COMPUTED_NORMALIZED_ENTROPY=0.4393172657332002
COMPUTED_MASS_ACCURACY=99.72973195876594
COMPUTED_MASS_ERROR=-0.038695136000001185
MONA_RATING=4.545454545454546
NUM_PEAKS=5
COMPOUND_NAME=Thifensulfuron-methyl
SPECTRUM_ID=WA000221
ADDUCT=[M+H]+
MS_LEVEL=MS2
PRECURSOR_MZ=388.0
IONMODE=positive
NOMINAL_MASS=387
PARENT_MASS=387.030725136
RECORD_DATE=2016.01.19 (Created 2007.08.01, modified 2011.05.06)
56.0 0.00800801
141.0 0.12912913
167.0 1.0
168.0 0.01601602
205.0 0.1021021
END IONS

BEGIN IONS
CHARGE=1+
INCHIKEY=AHTPATJNIAFOLR-UHFFFAOYSA-N
INSTRUMENT_TYPE=LC-ESI-QQ
INSTRUMENT=QuattroPremier XE, Waters
COLLISION_ENERGY=10 V
FORMULA=C12H13N5O6S2
SMILES=COc(n2)nc(nc(C)2)NC(=O)NS(=O)(=O)c(c1)c(sc1)C(=O)OC
CAS=79277-27-3
INCHI=InChI=1S/C12H13N5O6S2/c1-6-13-10(16-12(14-6)23-3)15-11(19)17-25(20,21)7-4-5-24-8(7)9(18)22-2/h4-5H,1-3H3,(H2,13,14,15,16,17,19)
AUTHOR=Nihon Waters K.K.
LICENSE=CC BY-NC
SPLASH=splash10-014r-0907000000-ad2ccc0613108cc6a349
SUBMITTER=submitter = Nihon Waters (Nihon Waters K.K.)
SYNON_$=00in-source
COMPUTED_SMILES=O=C(OC)C=1SC=CC1S(=O)(=O)N=C(O)N=C2N=C(N=C(OC)N2)C
COMPUTED_[2M+H-H2O]+=757.054080272
COMPUTED_[2M+K]+=813.159750272
COMPUTED_[M+H]+=388.038695136
COMPUTED_[2M+NA]+=797.051220272
COMPUTED_[2M+CL]-=809.514450272
COMPUTED_[2M+HAC-H]-=833.105480272
COMPUTED_[M-H20-H]-=368.012335136
COMPUTED_[M-H]-=386.023449136
COMPUTED_[2M-H]-=773.054174272
COMPUTED_[M+NA]+=410.020495136
COMPUTED_[M+H-H2O]+=370.023355136
COMPUTED_[2M+NH4]+=792.100030272
COMPUTED_[M+CL]-=422.483725136
COMPUTED_[M+NH4]+=405.069305136
COMPUTED_[M+K]+=426.129025136
COMPUTED_[2M+H]+=775.069420272
COMPUTED_[M+HAC-H]-=446.074755136
FIND_PEAK=ignore rel.int. < 5
COMPUTED_SPECTRAL_ENTROPY=0.8778247807743127
COMPUTED_NORMALIZED_ENTROPY=0.48992333840016294
COMPUTED_MASS_ACCURACY=99.72973195876594
COMPUTED_MASS_ERROR=-0.038695136000001185
MONA_RATING=4.545454545454546
NUM_PEAKS=6
COMPOUND_NAME=Thifensulfuron-methyl
SPECTRUM_ID=WA000220
ADDUCT=[M+H]+
MS_LEVEL=MS2
PRECURSOR_MZ=388.0
IONMODE=positive
NOMINAL_MASS=387
PARENT_MASS=387.030725136
RECORD_DATE=2016.01.19 (Created 2007.08.01, modified 2011.05.06)
141.0 0.03103103
167.0 1.0
168.0 0.01601602
205.0 0.00800801
388.0 0.85085085
389.0 0.02002002
END IONS

BEGIN IONS
CHARGE=1-
SYNON=Gibberellin A3
INCHIKEY=IXORZMNAPKEEDV-OBDJNFEBSA-N
INSTRUMENT_TYPE=LC-ESI-QQ
INSTRUMENT=QuattroPremier XE, Waters
COLLISION_ENERGY=40 V
FORMULA=C19H22O6
SMILES=OC(=O)[C@H]([C@@]321)[C@]([H])([C@@](C)54)[C@](C=C[C@H](O)5)(OC(=O)4)[C@]([H])(CC[C@@](O)(C(=C)C3)C2)1
CAS=77-06-5
INCHI=InChI=1S/C19H22O6/c1-9-7-17-8-18(9,24)5-3-10(17)19-6-4-11(20)16(2,15(23)25-19)13(19)12(17)14(21)22/h4,6,10-13,20,24H,1,3,5,7-8H2,2H3,(H,21,22)/t10-,11+,12-,13-,16-,17+,18+,19-/m1/s1
AUTHOR=Nihon Waters K.K.
LICENSE=CC BY-NC
SPLASH=splash10-0006-0942000000-a201d9e5dee89f021bd6
SUBMITTER=submitter = Nihon Waters (Nihon Waters K.K.)
SYNON_$=00in-source
COMPUTED_SMILES=O=C(O)C1C2C3(OC(=O)C2(C)C(O)C=C3)C4CCC5(O)C(=C)CC14C5
COMPUTED_[2M+H-H2O]+=675.275906848
COMPUTED_[2M+K]+=731.381576848
COMPUTED_[M+H]+=347.149608424
COMPUTED_[2M+NA]+=715.273046848
COMPUTED_[2M+CL]-=727.736276848
COMPUTED_[2M+HAC-H]-=751.327306848
COMPUTED_[M-H20-H]-=327.123248424
COMPUTED_[M-H]-=345.134362424
COMPUTED_[2M-H]-=691.276000848
COMPUTED_[M+NA]+=369.131408424
COMPUTED_[M+H-H2O]+=329.134268424
COMPUTED_[2M+NH4]+=710.321856848
COMPUTED_[M+CL]-=381.594638424
COMPUTED_[M+NH4]+=364.18021842400003
COMPUTED_[M+K]+=385.239938424
COMPUTED_[2M+H]+=693.291246848
COMPUTED_[M+HAC-H]-=405.185668424
FIND_PEAK=ignore rel.int. < 5
COMPUTED_SPECTRAL_ENTROPY=3.6456058423854363
COMPUTED_NORMALIZED_ENTROPY=0.7513567814064716
COMPUTED_MASS_ACCURACY=99.57236742971314
COMPUTED_MASS_ERROR=-0.03436242399999401
MONA_RATING=4.545454545454546
NUM_PEAKS=128
COMPOUND_NAME=Gibberellic acid
SPECTRUM_ID=WA000215
ADDUCT=[M-H]-
MS_LEVEL=MS2
PRECURSOR_MZ=345.1
IONMODE=negative
NOMINAL_MASS=346
PARENT_MASS=346.141638424
RECORD_DATE=2016.01.19 (Created 2007.08.01, modified 2011.05.06)
101.0 0.00800801
103.0 0.00800801
104.0 0.03903904
106.0 0.01601602
109.0 0.01201201
111.0 0.01201201
114.0 0.01201201
116.0 0.00800801
119.0 0.01201201
121.0 0.00800801
123.0 0.00800801
127.0 0.00800801
130.0 0.043043040000000005
132.0 0.00800801
134.0 0.00800801
138.0 0.01201201
141.0 0.00800801
142.0 1.0
144.0 0.00800801
146.0 0.03903904
149.0 0.04704705
152.0 0.01201201
155.0 0.01201201
159.0 0.05105105
162.0 0.01201201
164.0 0.00800801
166.0 0.01201201
168.0 0.00800801
169.0 0.02002002
171.0 0.00800801
173.0 0.00800801
175.0 0.01201201
177.0 0.01201201
179.0 0.06706706999999999
180.0 0.00800801
182.0 0.00800801
184.0 0.02402402
186.0 0.02002002
190.0 0.01201201
193.0 0.07107107
195.0 0.01201201
197.0 0.01201201
199.0 0.01601602
201.0 0.00800801
204.0 0.055055059999999996
206.0 0.03903904
208.0 0.01201201
210.0 0.01601602
214.0 0.00800801
216.0 0.01201201
219.0 0.035035039999999996
220.0 0.16816817
222.0 0.043043040000000005
224.0 0.01201201
227.0 0.03103103
230.0 0.01601602
232.0 0.01201201
235.0 0.00800801
237.0 0.00800801
239.0 0.02702703
241.0 0.00800801
243.0 0.01201201
245.0 0.01201201
247.0 0.02002002
250.0 0.01201201
252.0 0.00800801
255.0 0.01201201
257.0 0.01201201
258.0 0.00800801
261.0 0.01201201
263.0 0.00800801
264.0 0.00800801
266.0 0.01201201
268.0 0.01201201
271.0 0.01201201
274.0 0.01601602
278.0 0.00800801
280.0 0.00800801
282.0 0.01601602
283.0 0.00800801
285.0 0.01601602
287.0 0.00800801
289.0 0.01601602
291.0 0.00800801
293.0 0.01201201
297.0 0.01201201
300.0 0.01601602
302.0 0.00800801
306.0 0.00800801
308.0 0.00800801
309.0 0.00800801
311.0 0.01201201
313.0 0.00800801
316.0 0.00800801
319.0 0.00800801
321.0 0.01201201
323.0 0.00800801
326.0 0.01601602
328.0 0.00800801
330.0 0.01201201
334.0 0.00800801
336.0 0.00800801
337.0 0.00800801
341.0 0.01201201
344.0 0.01601602
346.0 0.00800801
348.0 0.00800801
351.0 0.01201201
354.0 0.00800801
355.0 0.01201201
358.0 0.01201201
361.0 0.01201201
363.0 0.00800801
365.0 0.01201201
368.0 0.01601602
370.0 0.00800801
374.0 0.01601602
375.0 0.00800801
377.0 0.01201201
379.0 0.00800801
382.0 0.01201201
384.0 0.00800801
386.0 0.00800801
388.0 0.01201201
392.0 0.01201201
393.0 0.00800801
395.0 0.01201201
398.0 0.01201201
END IONS

BEGIN IONS
CHARGE=1-
SYNON=Gibberellin A3
INCHIKEY=IXORZMNAPKEEDV-OBDJNFEBSA-N
INSTRUMENT_TYPE=LC-ESI-QQ
INSTRUMENT=QuattroPremier XE, Waters
COLLISION_ENERGY=30 V
FORMULA=C19H22O6
SMILES=OC(=O)[C@H]([C@@]321)[C@]([H])([C@@](C)54)[C@](C=C[C@H](O)5)(OC(=O)4)[C@]([H])(CC[C@@](O)(C(=C)C3)C2)1
CAS=77-06-5
INCHI=InChI=1S/C19H22O6/c1-9-7-17-8-18(9,24)5-3-10(17)19-6-4-11(20)16(2,15(23)25-19)13(19)12(17)14(21)22/h4,6,10-13,20,24H,1,3,5,7-8H2,2H3,(H,21,22)/t10-,11+,12-,13-,16-,17+,18+,19-/m1/s1
AUTHOR=Nihon Waters K.K.
LICENSE=CC BY-NC
SPLASH=splash10-0006-0952000000-aec437e99f971a92d57a
SUBMITTER=submitter = Nihon Waters (Nihon Waters K.K.)
SYNON_$=00in-source
COMPUTED_SMILES=O=C(O)C1C2C3(OC(=O)C2(C)C(O)C=C3)C4CCC5(O)C(=C)CC14C5
COMPUTED_[2M+H-H2O]+=675.275906848
COMPUTED_[2M+K]+=731.381576848
COMPUTED_[M+H]+=347.149608424
COMPUTED_[2M+NA]+=715.273046848
COMPUTED_[2M+CL]-=727.736276848
COMPUTED_[2M+HAC-H]-=751.327306848
COMPUTED_[M-H20-H]-=327.123248424
COMPUTED_[M-H]-=345.134362424
COMPUTED_[2M-H]-=691.276000848
COMPUTED_[M+NA]+=369.131408424
COMPUTED_[M+H-H2O]+=329.134268424
COMPUTED_[2M+NH4]+=710.321856848
COMPUTED_[M+CL]-=381.594638424
COMPUTED_[M+NH4]+=364.18021842400003
COMPUTED_[M+K]+=385.239938424
COMPUTED_[2M+H]+=693.291246848
COMPUTED_[M+HAC-H]-=405.185668424
FIND_PEAK=ignore rel.int. < 5
COMPUTED_SPECTRAL_ENTROPY=3.786847798527647
COMPUTED_NORMALIZED_ENTROPY=0.7719950399461968
COMPUTED_MASS_ACCURACY=99.57236742971314
COMPUTED_MASS_ERROR=-0.03436242399999401
MONA_RATING=4.545454545454546
NUM_PEAKS=135
COMPOUND_NAME=Gibberellic acid
SPECTRUM_ID=WA000214
ADDUCT=[M-H]-
MS_LEVEL=MS2
PRECURSOR_MZ=345.1
IONMODE=negative
NOMINAL_MASS=346
PARENT_MASS=346.141638424
RECORD_DATE=2016.01.19 (Created 2007.08.01, modified 2011.05.06)
104.0 0.03103103
106.0 0.055055059999999996
108.0 0.01201201
111.0 0.01601602
115.0 0.01601602
119.0 0.03103103
121.0 0.01201201
122.0 0.01201201
125.0 0.01201201
127.0 0.01201201
130.0 0.01601602
132.0 0.01201201
137.0 0.00800801
139.0 0.01601602
141.0 0.06306306
142.0 1.0
145.0 0.05905906
147.0 0.01201201
152.0 0.00800801
155.0 0.01201201
157.0 0.01201201
159.0 0.00800801
161.0 0.01201201
163.0 0.01201201
165.0 0.00800801
167.0 0.01201201
169.0 0.03903904
170.0 0.08208208
173.0 0.01201201
175.0 0.00800801
178.0 0.01201201
180.0 0.01201201
183.0 0.01201201
185.0 0.01201201
187.0 0.00800801
189.0 0.03103103
191.0 0.035035039999999996
194.0 0.00800801
196.0 0.00800801
199.0 0.05105105
200.0 0.11011011
203.0 0.01601602
204.0 0.00800801
208.0 0.00800801
210.0 0.05105105
213.0 0.07807808
216.0 0.00800801
217.0 0.01201201
219.0 0.01601602
221.0 0.11811812
224.0 0.02002002
227.0 0.2002002
228.0 0.02702703
230.0 0.00800801
232.0 0.01601602
234.0 0.01201201
236.0 0.00800801
238.0 0.00800801
239.0 0.02002002
241.0 0.01201201
243.0 0.03903904
244.0 0.01201201
247.0 0.01201201
248.0 0.00800801
250.0 0.01201201
252.0 0.00800801
253.0 0.01201201
255.0 0.00800801
256.0 0.02402402
258.0 0.01201201
261.0 0.01201201
262.0 0.00800801
265.0 0.02702703
268.0 0.00800801
270.0 0.01201201
272.0 0.01601602
275.0 0.01201201
278.0 0.01201201
281.0 0.00800801
283.0 0.01201201
285.0 0.00800801
289.0 0.01201201
290.0 0.02002002
293.0 0.01201201
294.0 0.00800801
296.0 0.00800801
298.0 0.01201201
300.0 0.01201201
302.0 0.01201201
305.0 0.00800801
307.0 0.01201201
310.0 0.00800801
312.0 0.01201201
314.0 0.00800801
317.0 0.01201201
320.0 0.00800801
321.0 0.01601602
323.0 0.01201201
326.0 0.00800801
328.0 0.01601602
330.0 0.00800801
332.0 0.00800801
335.0 0.01201201
337.0 0.00800801
340.0 0.02002002
342.0 0.00800801
344.0 0.01201201
345.0 0.09409409
348.0 0.00800801
350.0 0.00800801
353.0 0.00800801
356.0 0.01201201
359.0 0.02002002
364.0 0.01201201
365.0 0.00800801
367.0 0.01201201
370.0 0.00800801
371.0 0.01601602
375.0 0.01201201
377.0 0.01201201
379.0 0.00800801
381.0 0.01201201
383.0 0.01201201
385.0 0.00800801
388.0 0.00800801
392.0 0.01601602
395.0 0.01201201
397.0 0.01601602
END IONS

BEGIN IONS
CHARGE=1-
SYNON=Gibberellin A3
INCHIKEY=IXORZMNAPKEEDV-OBDJNFEBSA-N
INSTRUMENT_TYPE=LC-ESI-QQ
INSTRUMENT=QuattroPremier XE, Waters
COLLISION_ENERGY=20 V
FORMULA=C19H22O6
SMILES=OC(=O)[C@H]([C@@]321)[C@]([H])([C@@](C)54)[C@](C=C[C@H](O)5)(OC(=O)4)[C@]([H])(CC[C@@](O)(C(=C)C3)C2)1
CAS=77-06-5
INCHI=InChI=1S/C19H22O6/c1-9-7-17-8-18(9,24)5-3-10(17)19-6-4-11(20)16(2,15(23)25-19)13(19)12(17)14(21)22/h4,6,10-13,20,24H,1,3,5,7-8H2,2H3,(H,21,22)/t10-,11+,12-,13-,16-,17+,18+,19-/m1/s1
AUTHOR=Nihon Waters K.K.
LICENSE=CC BY-NC
SPLASH=splash10-000j-0395000000-0c813419cf7359c5f387
SUBMITTER=submitter = Nihon Waters (Nihon Waters K.K.)
SYNON_$=00in-source
COMPUTED_SMILES=O=C(O)C1C2C3(OC(=O)C2(C)C(O)C=C3)C4CCC5(O)C(=C)CC14C5
COMPUTED_[2M+H-H2O]+=675.2759068479999
COMPUTED_[2M+K]+=731.3815768479999
COMPUTED_[M+H]+=347.14960842399995
COMPUTED_[2M+NA]+=715.2730468479999
COMPUTED_[2M+CL]-=727.7362768479999
COMPUTED_[2M+HAC-H]-=751.3273068479999
COMPUTED_[M-H20-H]-=327.12324842399994
COMPUTED_[M-H]-=345.13436242399996
COMPUTED_[2M-H]-=691.2760008479999
COMPUTED_[M+NA]+=369.13140842399997
COMPUTED_[M+H-H2O]+=329.13426842399997
COMPUTED_[2M+NH4]+=710.3218568479999
COMPUTED_[M+CL]-=381.594638424
COMPUTED_[M+NH4]+=364.180218424
COMPUTED_[M+K]+=385.23993842399994
COMPUTED_[2M+H]+=693.2912468479999
COMPUTED_[M+HAC-H]-=405.18566842399997
FIND_PEAK=ignore rel.int. < 5
COMPUTED_SPECTRAL_ENTROPY=3.6178053970945867
COMPUTED_NORMALIZED_ENTROPY=0.7331694211219106
COMPUTED_MASS_ACCURACY=99.57236742954844
COMPUTED_MASS_ERROR=-0.034362423999937164
MONA_RATING=4.545454545454546
NUM_PEAKS=139
COMPOUND_NAME=Gibberellic acid
SPECTRUM_ID=WA000213
ADDUCT=[M-H]-
MS_LEVEL=MS2
PRECURSOR_MZ=345.1
IONMODE=negative
NOMINAL_MASS=346
PARENT_MASS=346.14163842399995
RECORD_DATE=2016.01.19 (Created 2007.08.01, modified 2011.05.06)
102.0 0.01601602
103.0 0.01201201
105.0 0.01201201
108.0 0.01201201
112.0 0.01601602
117.0 0.01601602
119.0 0.01201201
120.0 0.01201201
123.0 0.01601602
127.0 0.01201201
129.0 0.01201201
130.0 0.01201201
133.0 0.01601602
136.0 0.01201201
139.0 0.01601602
143.0 0.44744745
144.0 0.043043040000000005
157.0 0.01201201
159.0 0.01201201
161.0 0.01201201
165.0 0.01201201
168.0 0.01201201
171.0 0.01601602
172.0 0.00800801
174.0 0.01201201
176.0 0.035035039999999996
178.0 0.01201201
180.0 0.01201201
182.0 0.01601602
184.0 0.01201201
187.0 0.01201201
188.0 0.01201201
190.0 0.01201201
193.0 0.01201201
196.0 0.01201201
199.0 0.01601602
201.0 0.08608608999999999
204.0 0.00800801
206.0 0.00800801
208.0 0.01201201
210.0 0.01201201
213.0 0.11011011
215.0 0.04704705
218.0 0.01601602
221.0 0.42742743
222.0 0.00800801
225.0 0.00800801
227.0 0.08608608999999999
229.0 0.01201201
231.0 0.00800801
232.0 0.01201201
234.0 0.01201201
237.0 0.035035039999999996
239.0 1.0
240.0 0.08608608999999999
242.0 0.01201201
244.0 0.01201201
246.0 0.01201201
248.0 0.00800801
250.0 0.01201201
252.0 0.01601602
254.0 0.02002002
255.0 0.00800801
257.0 0.17617618000000002
261.0 0.01201201
264.0 0.01601602
265.0 0.01201201
267.0 0.00800801
269.0 0.00800801
271.0 0.08608608999999999
273.0 0.02002002
275.0 0.01201201
278.0 0.02702703
280.0 0.00800801
281.0 0.02402402
283.0 0.06306306
285.0 0.00800801
287.0 0.01201201
289.0 0.01601602
292.0 0.01601602
294.0 0.01601602
296.0 0.01601602
299.0 0.01601602
301.0 0.055055059999999996
303.0 0.01201201
306.0 0.01601602
308.0 0.00800801
311.0 0.01601602
313.0 0.01201201
315.0 0.00800801
318.0 0.01601602
321.0 0.01601602
323.0 0.01201201
326.0 0.01601602
327.0 0.08608608999999999
330.0 0.01601602
332.0 0.01601602
334.0 0.01201201
337.0 0.01601602
340.0 0.01201201
342.0 0.00800801
345.0 0.6866866899999999
346.0 0.16816817
348.0 0.00800801
350.0 0.01201201
351.0 0.00800801
353.0 0.01201201
355.0 0.01201201
357.0 0.01601602
359.0 0.01201201
363.0 0.01601602
365.0 0.01601602
367.0 0.01201201
368.0 0.01201201
370.0 0.01201201
373.0 0.01601602
375.0 0.01201201
377.0 0.01201201
379.0 0.00800801
382.0 0.01201201
384.0 0.01601602
386.0 0.00800801
388.0 0.01201201
391.0 0.01601602
393.0 0.01201201
396.0 0.01201201
398.0 0.01201201
400.0 0.01201201
END IONS

BEGIN IONS
CHARGE=1-
SYNON=Gibberellin A3
INCHIKEY=IXORZMNAPKEEDV-OBDJNFEBSA-N
INSTRUMENT_TYPE=LC-ESI-QQ
INSTRUMENT=QuattroPremier XE, Waters
COLLISION_ENERGY=10 V
FORMULA=C19H22O6
SMILES=OC(=O)[C@H]([C@@]321)[C@]([H])([C@@](C)54)[C@](C=C[C@H](O)5)(OC(=O)4)[C@]([H])(CC[C@@](O)(C(=C)C3)C2)1
CAS=77-06-5
INCHI=InChI=1S/C19H22O6/c1-9-7-17-8-18(9,24)5-3-10(17)19-6-4-11(20)16(2,15(23)25-19)13(19)12(17)14(21)22/h4,6,10-13,20,24H,1,3,5,7-8H2,2H3,(H,21,22)/t10-,11+,12-,13-,16-,17+,18+,19-/m1/s1
AUTHOR=Nihon Waters K.K.
LICENSE=CC BY-NC
SPLASH=splash10-0002-0009000000-4c7b62eb0b49c7a74045
SUBMITTER=submitter = Nihon Waters (Nihon Waters K.K.)
SYNON_$=00in-source
COMPUTED_SMILES=O=C(O)C1C2C3(OC(=O)C2(C)C(O)C=C3)C4CCC5(O)C(=C)CC14C5
COMPUTED_[2M+H-H2O]+=675.275906848
COMPUTED_[2M+K]+=731.381576848
COMPUTED_[M+H]+=347.149608424
COMPUTED_[2M+NA]+=715.273046848
COMPUTED_[2M+CL]-=727.736276848
COMPUTED_[2M+HAC-H]-=751.327306848
COMPUTED_[M-H20-H]-=327.123248424
COMPUTED_[M-H]-=345.134362424
COMPUTED_[2M-H]-=691.276000848
COMPUTED_[M+NA]+=369.131408424
COMPUTED_[M+H-H2O]+=329.134268424
COMPUTED_[2M+NH4]+=710.321856848
COMPUTED_[M+CL]-=381.594638424
COMPUTED_[M+NH4]+=364.18021842400003
COMPUTED_[M+K]+=385.239938424
COMPUTED_[2M+H]+=693.291246848
COMPUTED_[M+HAC-H]-=405.185668424
FIND_PEAK=ignore rel.int. < 5
COMPUTED_SPECTRAL_ENTROPY=0.6779239817537012
COMPUTED_NORMALIZED_ENTROPY=0.3783565782106745
COMPUTED_MASS_ACCURACY=99.57236742971314
COMPUTED_MASS_ERROR=-0.03436242399999401
MONA_RATING=4.545454545454546
NUM_PEAKS=6
COMPOUND_NAME=Gibberellic acid
SPECTRUM_ID=WA000212
ADDUCT=[M-H]-
MS_LEVEL=MS2
PRECURSOR_MZ=345.1
IONMODE=negative
NOMINAL_MASS=346
PARENT_MASS=346.141638424
RECORD_DATE=2016.01.19 (Created 2007.08.01, modified 2011.05.06)
141.0 0.00800801
239.0 0.07407407
344.0 0.02002002
345.0 1.0
346.0 0.10610611
384.0 0.00800801
END IONS

BEGIN IONS
CHARGE=1+
INCHIKEY=QNXAVFXEJCPCJO-UHFFFAOYSA-N
INSTRUMENT_TYPE=LC-ESI-QQ
INSTRUMENT=QuattroPremier XE, Waters
COLLISION_ENERGY=40 V
FORMULA=C13H10Cl2FN5O3S
SMILES=CCOC(=N3)n(n1)c(C=C(F)3)nc1S(=O)(=O)Nc(c(Cl)2)c(Cl)ccc2
CAS=145701-21-9
INCHI=InChI=1S/C13H10Cl2FN5O3S/c1-2-24-13-17-9(16)6-10-18-12(19-21(10)13)25(22,23)20-11-7(14)4-3-5-8(11)15/h3-6,20H,2H2,1H3
AUTHOR=Nihon Waters K.K.
LICENSE=CC BY-NC
SPLASH=splash10-03di-0900000000-58d9508f51c474feed7a
SUBMITTER=submitter = Nihon Waters (Nihon Waters K.K.)
SYNON_$=00in-source
COMPUTED_SMILES=O=S(=O)(NC=1C(CL)=CC=CC1CL)C=2N=C3C=C(F)N=C(OCC)N3N2
COMPUTED_[2M+H-H2O]+=792.96571752
COMPUTED_[2M+K]+=849.07138752
COMPUTED_[M+H]+=405.99451376
COMPUTED_[2M+NA]+=832.9628575200001
COMPUTED_[2M+CL]-=845.42608752
COMPUTED_[2M+HAC-H]-=869.01711752
COMPUTED_[M-H20-H]-=385.96815376
COMPUTED_[M-H]-=403.97926776
COMPUTED_[2M-H]-=808.96581152
COMPUTED_[M+NA]+=427.97631376000004
COMPUTED_[M+H-H2O]+=387.97917376000004
COMPUTED_[2M+NH4]+=828.0116675200001
COMPUTED_[M+CL]-=440.43954376
COMPUTED_[M+NH4]+=423.02512376000004
COMPUTED_[M+K]+=444.08484376
COMPUTED_[2M+H]+=810.98105752
COMPUTED_[M+HAC-H]-=464.03057376000004
FIND_PEAK=ignore rel.int. < 5
COMPUTED_SPECTRAL_ENTROPY=0.2935779842359113
COMPUTED_NORMALIZED_ENTROPY=0.18241025762336271
COMPUTED_MASS_ACCURACY=13.512906403896526
COMPUTED_MASS_ERROR=0.00548623999998199
MONA_RATING=4.545454545454546
NUM_PEAKS=5
COMPOUND_NAME=Diclosulam
SPECTRUM_ID=WA000207
ADDUCT=[M+H]+
MS_LEVEL=MS2
PRECURSOR_MZ=406.0
IONMODE=positive
NOMINAL_MASS=405
PARENT_MASS=404.98654376
RECORD_DATE=2016.01.19 (Created 2007.08.01, modified 2011.05.06)
90.0 0.00800801
125.0 0.01601602
161.0 1.0
162.0 0.01601602
176.0 0.02002002
END IONS

BEGIN IONS
CHARGE=1+
INCHIKEY=QNXAVFXEJCPCJO-UHFFFAOYSA-N
INSTRUMENT_TYPE=LC-ESI-QQ
INSTRUMENT=QuattroPremier XE, Waters
COLLISION_ENERGY=30 V
FORMULA=C13H10Cl2FN5O3S
SMILES=CCOC(=N3)n(n1)c(C=C(F)3)nc1S(=O)(=O)Nc(c(Cl)2)c(Cl)ccc2
CAS=145701-21-9
INCHI=InChI=1S/C13H10Cl2FN5O3S/c1-2-24-13-17-9(16)6-10-18-12(19-21(10)13)25(22,23)20-11-7(14)4-3-5-8(11)15/h3-6,20H,2H2,1H3
AUTHOR=Nihon Waters K.K.
LICENSE=CC BY-NC
SPLASH=splash10-03di-0900000000-5f6240e0049a34fd6f4e
SUBMITTER=submitter = Nihon Waters (Nihon Waters K.K.)
SYNON_$=00in-source
COMPUTED_SMILES=O=S(=O)(NC=1C(CL)=CC=CC1CL)C=2N=C3C=C(F)N=C(OCC)N3N2
COMPUTED_[2M+H-H2O]+=792.96571752
COMPUTED_[2M+K]+=849.07138752
COMPUTED_[M+H]+=405.99451376
COMPUTED_[2M+NA]+=832.9628575200001
COMPUTED_[2M+CL]-=845.42608752
COMPUTED_[2M+HAC-H]-=869.01711752
COMPUTED_[M-H20-H]-=385.96815376
COMPUTED_[M-H]-=403.97926776
COMPUTED_[2M-H]-=808.96581152
COMPUTED_[M+NA]+=427.97631376000004
COMPUTED_[M+H-H2O]+=387.97917376000004
COMPUTED_[2M+NH4]+=828.0116675200001
COMPUTED_[M+CL]-=440.43954376
COMPUTED_[M+NH4]+=423.02512376000004
COMPUTED_[M+K]+=444.08484376
COMPUTED_[2M+H]+=810.98105752
COMPUTED_[M+HAC-H]-=464.03057376000004
FIND_PEAK=ignore rel.int. < 5
COMPUTED_SPECTRAL_ENTROPY=0.20389674676748193
COMPUTED_NORMALIZED_ENTROPY=0.18559481708936085
COMPUTED_MASS_ACCURACY=13.512906403896526
COMPUTED_MASS_ERROR=0.00548623999998199
MONA_RATING=4.545454545454546
NUM_PEAKS=3
COMPOUND_NAME=Diclosulam
SPECTRUM_ID=WA000206
ADDUCT=[M+H]+
MS_LEVEL=MS2
PRECURSOR_MZ=406.0
IONMODE=positive
NOMINAL_MASS=405
PARENT_MASS=404.98654376
RECORD_DATE=2016.01.19 (Created 2007.08.01, modified 2011.05.06)
161.0 1.0
162.0 0.02002002
176.0 0.02402402
END IONS

BEGIN IONS
CHARGE=1+
INCHIKEY=QNXAVFXEJCPCJO-UHFFFAOYSA-N
INSTRUMENT_TYPE=LC-ESI-QQ
INSTRUMENT=QuattroPremier XE, Waters
COLLISION_ENERGY=20 V
FORMULA=C13H10Cl2FN5O3S
CAS=145701-21-9
SMILES=CCOC(=N3)n(n1)c(C=C(F)3)nc1S(=O)(=O)Nc(c(Cl)2)c(Cl)ccc2
INCHI=InChI=1S/C13H10Cl2FN5O3S/c1-2-24-13-17-9(16)6-10-18-12(19-21(10)13)25(22,23)20-11-7(14)4-3-5-8(11)15/h3-6,20H,2H2,1H3
LICENSE=CC BY-NC
AUTHOR=Nihon Waters K.K.
SPLASH=splash10-03di-0901000000-084223c1f046e92336a9
SUBMITTER=submitter = Nihon Waters (Nihon Waters K.K.)
SYNON_$=00in-source
COMPUTED_SMILES=O=S(=O)(NC=1C(CL)=CC=CC1CL)C=2N=C3C=C(F)N=C(OCC)N3N2
COMPUTED_[2M+H-H2O]+=792.96571752
COMPUTED_[2M+K]+=849.07138752
COMPUTED_[M+H]+=405.99451376
COMPUTED_[2M+NA]+=832.9628575200001
COMPUTED_[2M+CL]-=845.42608752
COMPUTED_[2M+HAC-H]-=869.01711752
COMPUTED_[M-H20-H]-=385.96815376
COMPUTED_[M-H]-=403.97926776
COMPUTED_[2M-H]-=808.96581152
COMPUTED_[M+NA]+=427.97631376000004
COMPUTED_[M+H-H2O]+=387.97917376000004
COMPUTED_[2M+NH4]+=828.0116675200001
COMPUTED_[M+CL]-=440.43954376
COMPUTED_[M+NH4]+=423.02512376000004
COMPUTED_[M+K]+=444.08484376
COMPUTED_[2M+H]+=810.98105752
COMPUTED_[M+HAC-H]-=464.03057376000004
FIND_PEAK=ignore rel.int. < 5
COMPUTED_SPECTRAL_ENTROPY=0.7170059678525514
COMPUTED_NORMALIZED_ENTROPY=0.3684681783486449
COMPUTED_MASS_ACCURACY=13.512906403896526
COMPUTED_MASS_ERROR=0.00548623999998199
MONA_RATING=4.545454545454546
NUM_PEAKS=7
COMPOUND_NAME=Diclosulam
SPECTRUM_ID=WA000205
ADDUCT=[M+H]+
MS_LEVEL=MS2
PRECURSOR_MZ=406.0
IONMODE=positive
NOMINAL_MASS=405
PARENT_MASS=404.98654376
RECORD_DATE=2016.01.19 (Created 2007.08.01, modified 2011.05.06)
161.0 1.0
162.0 0.01201201
176.0 0.02002002
224.0 0.02002002
314.0 0.00800801
378.0 0.12912913
406.0 0.035035039999999996
END IONS

BEGIN IONS
CHARGE=1+
INCHIKEY=QNXAVFXEJCPCJO-UHFFFAOYSA-N
INSTRUMENT_TYPE=LC-ESI-QQ
INSTRUMENT=QuattroPremier XE, Waters
COLLISION_ENERGY=10 V
FORMULA=C13H10Cl2FN5O3S
SMILES=CCOC(=N3)n(n1)c(C=C(F)3)nc1S(=O)(=O)Nc(c(Cl)2)c(Cl)ccc2
CAS=145701-21-9
INCHI=InChI=1S/C13H10Cl2FN5O3S/c1-2-24-13-17-9(16)6-10-18-12(19-21(10)13)25(22,23)20-11-7(14)4-3-5-8(11)15/h3-6,20H,2H2,1H3
AUTHOR=Nihon Waters K.K.
LICENSE=CC BY-NC
SPLASH=splash10-0a4i-0000900000-efc5e423a25974abbae9
SUBMITTER=submitter = Nihon Waters (Nihon Waters K.K.)
SYNON_$=00in-source
COMPUTED_SMILES=O=S(=O)(NC=1C(CL)=CC=CC1CL)C=2N=C3C=C(F)N=C(OCC)N3N2
COMPUTED_[2M+H-H2O]+=792.9657175199999
COMPUTED_[2M+K]+=849.0713875199999
COMPUTED_[M+H]+=405.99451375999996
COMPUTED_[2M+NA]+=832.96285752
COMPUTED_[2M+CL]-=845.4260875199999
COMPUTED_[2M+HAC-H]-=869.0171175199999
COMPUTED_[M-H20-H]-=385.96815375999995
COMPUTED_[M-H]-=403.97926775999997
COMPUTED_[2M-H]-=808.9658115199999
COMPUTED_[M+NA]+=427.97631376
COMPUTED_[M+H-H2O]+=387.97917376
COMPUTED_[2M+NH4]+=828.01166752
COMPUTED_[M+CL]-=440.43954376
COMPUTED_[M+NH4]+=423.02512376
COMPUTED_[M+K]+=444.08484375999996
COMPUTED_[2M+H]+=810.9810575199999
COMPUTED_[M+HAC-H]-=464.03057376
FIND_PEAK=ignore rel.int. < 5
COMPUTED_SPECTRAL_ENTROPY=0.6118619526734492
COMPUTED_NORMALIZED_ENTROPY=0.4413651024153114
COMPUTED_MASS_ACCURACY=13.512906404036535
COMPUTED_MASS_ERROR=0.005486240000038833
MONA_RATING=4.545454545454546
NUM_PEAKS=4
COMPOUND_NAME=Diclosulam
SPECTRUM_ID=WA000204
ADDUCT=[M+H]+
MS_LEVEL=MS2
PRECURSOR_MZ=406.0
IONMODE=positive
NOMINAL_MASS=405
PARENT_MASS=404.98654375999996
RECORD_DATE=2016.01.19 (Created 2007.08.01, modified 2011.05.06)
161.0 0.08208208
378.0 0.08208208
406.0 1.0
407.0 0.03103103
END IONS

BEGIN IONS
CHARGE=1-
INCHIKEY=GLWWLNJJJCTFMZ-UHFFFAOYSA-N
INSTRUMENT_TYPE=LC-ESI-QQ
INSTRUMENT=QuattroPremier XE, Waters
COLLISION_ENERGY=40 V
FORMULA=C11H9Cl2NO3
SMILES=OC(=O)C(C2)(C2)C(=O)Nc(c1)c(Cl)cc(Cl)c1
CAS=113136-77-9
INCHI=InChI=1S/C11H9Cl2NO3/c12-6-1-2-8(7(13)5-6)14-9(15)11(3-4-11)10(16)17/h1-2,5H,3-4H2,(H,14,15)(H,16,17)
AUTHOR=Nihon Waters K.K.
LICENSE=CC BY-NC
SPLASH=splash10-03di-0900000000-cd6fb7c08b95fbcd83cb
SUBMITTER=submitter = Nihon Waters (Nihon Waters K.K.)
SYNON_$=00in-source
COMPUTED_SMILES=O=C(O)C1(C(O)=NC2=CC=C(CL)C=C2Cl)CC1
COMPUTED_[2M+H-H2O]+=528.9845270159999
COMPUTED_[2M+K]+=585.0901970159999
COMPUTED_[M+H]+=274.00391850799997
COMPUTED_[2M+NA]+=568.981667016
COMPUTED_[2M+CL]-=581.4448970159999
COMPUTED_[2M+HAC-H]-=605.035927016
COMPUTED_[M-H20-H]-=253.97755850799996
COMPUTED_[M-H]-=271.988672508
COMPUTED_[2M-H]-=544.9846210159999
COMPUTED_[M+NA]+=295.985718508
COMPUTED_[M+H-H2O]+=255.98857850799996
COMPUTED_[2M+NH4]+=564.030477016
COMPUTED_[M+CL]-=308.44894850799994
COMPUTED_[M+NH4]+=291.034528508
COMPUTED_[M+K]+=312.09424850799996
COMPUTED_[2M+H]+=546.9998670159999
COMPUTED_[M+HAC-H]-=332.039978508
FIND_PEAK=ignore rel.int. < 5
COMPUTED_SPECTRAL_ENTROPY=0.43619649934675386
COMPUTED_NORMALIZED_ENTROPY=0.24344590154987752
COMPUTED_MASS_ACCURACY=326.121765354917
COMPUTED_MASS_ERROR=-0.08867250800000193
MONA_RATING=4.166666666666666
NUM_PEAKS=6
COMPOUND_NAME=Cyclanilide
SPECTRUM_ID=WA000203
ADDUCT=[M-H]-
MS_LEVEL=MS2
PRECURSOR_MZ=271.9
IONMODE=negative
NOMINAL_MASS=273
PARENT_MASS=272.99594850799997
RECORD_DATE=2016.01.19 (Created 2007.08.01, modified 2012.10.22)
124.0 0.043043040000000005
156.0 0.01201201
158.0 0.03103103
160.0 1.0
226.0 0.00800801
228.0 0.00800801
END IONS

BEGIN IONS
CHARGE=1-
INCHIKEY=GLWWLNJJJCTFMZ-UHFFFAOYSA-N
INSTRUMENT_TYPE=LC-ESI-QQ
INSTRUMENT=QuattroPremier XE, Waters
COLLISION_ENERGY=30 V
FORMULA=C11H9Cl2NO3
SMILES=OC(=O)C(C2)(C2)C(=O)Nc(c1)c(Cl)cc(Cl)c1
CAS=113136-77-9
INCHI=InChI=1S/C11H9Cl2NO3/c12-6-1-2-8(7(13)5-6)14-9(15)11(3-4-11)10(16)17/h1-2,5H,3-4H2,(H,14,15)(H,16,17)
AUTHOR=Nihon Waters K.K.
LICENSE=CC BY-NC
SPLASH=splash10-03di-0900000000-0a2efae029201108b560
SUBMITTER=submitter = Nihon Waters (Nihon Waters K.K.)
SYNON_$=00in-source
COMPUTED_SMILES=O=C(O)C1(C(O)=NC2=CC=C(CL)C=C2Cl)CC1
COMPUTED_[2M+H-H2O]+=528.984527016
COMPUTED_[2M+K]+=585.090197016
COMPUTED_[M+H]+=274.003918508
COMPUTED_[2M+NA]+=568.9816670160001
COMPUTED_[2M+CL]-=581.444897016
COMPUTED_[2M+HAC-H]-=605.0359270160001
COMPUTED_[M-H20-H]-=253.97755850800002
COMPUTED_[M-H]-=271.98867250800004
COMPUTED_[2M-H]-=544.984621016
COMPUTED_[M+NA]+=295.98571850800005
COMPUTED_[M+H-H2O]+=255.98857850800002
COMPUTED_[2M+NH4]+=564.0304770160001
COMPUTED_[M+CL]-=308.44894850800006
COMPUTED_[M+NH4]+=291.03452850800005
COMPUTED_[M+K]+=312.094248508
COMPUTED_[2M+H]+=546.999867016
COMPUTED_[M+HAC-H]-=332.03997850800005
FIND_PEAK=ignore rel.int. < 5
COMPUTED_SPECTRAL_ENTROPY=0.39803780477792794
COMPUTED_NORMALIZED_ENTROPY=0.2473147933839454
COMPUTED_MASS_ACCURACY=326.12176535512606
COMPUTED_MASS_ERROR=-0.08867250800005877
MONA_RATING=4.166666666666666
NUM_PEAKS=5
COMPOUND_NAME=Cyclanilide
SPECTRUM_ID=WA000202
ADDUCT=[M-H]-
MS_LEVEL=MS2
PRECURSOR_MZ=271.9
IONMODE=negative
NOMINAL_MASS=273
PARENT_MASS=272.995948508
RECORD_DATE=2016.01.19 (Created 2007.08.01, modified 2012.10.22)
158.0 0.01201201
160.0 1.0
192.0 0.01201201
226.0 0.01201201
228.0 0.06306306
END IONS

BEGIN IONS
CHARGE=1-
INCHIKEY=GLWWLNJJJCTFMZ-UHFFFAOYSA-N
INSTRUMENT_TYPE=LC-ESI-QQ
INSTRUMENT=QuattroPremier XE, Waters
COLLISION_ENERGY=20 V
FORMULA=C11H9Cl2NO3
SMILES=OC(=O)C(C2)(C2)C(=O)Nc(c1)c(Cl)cc(Cl)c1
CAS=113136-77-9
INCHI=InChI=1S/C11H9Cl2NO3/c12-6-1-2-8(7(13)5-6)14-9(15)11(3-4-11)10(16)17/h1-2,5H,3-4H2,(H,14,15)(H,16,17)
AUTHOR=Nihon Waters K.K.
LICENSE=CC BY-NC
SPLASH=splash10-03i0-0790000000-3e7ac54e667fd0e6adfb
SUBMITTER=submitter = Nihon Waters (Nihon Waters K.K.)
SYNON_$=00in-source
COMPUTED_SMILES=O=C(O)C1(C(O)=NC2=CC=C(CL)C=C2Cl)CC1
COMPUTED_[2M+H-H2O]+=528.984527016
COMPUTED_[2M+K]+=585.090197016
COMPUTED_[M+H]+=274.003918508
COMPUTED_[2M+NA]+=568.9816670160001
COMPUTED_[2M+CL]-=581.444897016
COMPUTED_[2M+HAC-H]-=605.0359270160001
COMPUTED_[M-H20-H]-=253.97755850800002
COMPUTED_[M-H]-=271.98867250800004
COMPUTED_[2M-H]-=544.984621016
COMPUTED_[M+NA]+=295.98571850800005
COMPUTED_[M+H-H2O]+=255.98857850800002
COMPUTED_[2M+NH4]+=564.0304770160001
COMPUTED_[M+CL]-=308.44894850800006
COMPUTED_[M+NH4]+=291.03452850800005
COMPUTED_[M+K]+=312.094248508
COMPUTED_[2M+H]+=546.999867016
COMPUTED_[M+HAC-H]-=332.03997850800005
FIND_PEAK=ignore rel.int. < 5
COMPUTED_SPECTRAL_ENTROPY=1.093701605670789
COMPUTED_NORMALIZED_ENTROPY=0.5259592942378479
COMPUTED_MASS_ACCURACY=326.12176535512606
COMPUTED_MASS_ERROR=-0.08867250800005877
MONA_RATING=4.166666666666666
NUM_PEAKS=8
COMPOUND_NAME=Cyclanilide
SPECTRUM_ID=WA000201
ADDUCT=[M-H]-
MS_LEVEL=MS2
PRECURSOR_MZ=271.9
IONMODE=negative
NOMINAL_MASS=273
PARENT_MASS=272.995948508
RECORD_DATE=2016.01.19 (Created 2007.08.01, modified 2012.10.22)
158.0 0.00800801
160.0 1.0
192.0 0.04704705
226.0 0.00800801
228.0 1.0
229.0 0.00800801
270.0 0.00800801
272.0 0.19619620000000002
END IONS

BEGIN IONS
CHARGE=1-
INCHIKEY=ZDPIRDKFNASDAO-UHFFFAOYSA-N
INSTRUMENT_TYPE=LC-ESI-QQ
INSTRUMENT=QuattroPremier XE, Waters
COLLISION_ENERGY=10 V
FORMULA=C11H9Cl2NO3
CAS=113136-77-9
SMILES=OC(=O)C(C2)(C2)C(=O)Nc(c(Cl)1)c(Cl)ccc1
INCHI=InChI=1S/C11H9Cl2NO3/c12-6-2-1-3-7(13)8(6)14-9(15)11(4-5-11)10(16)17/h1-3H,4-5H2,(H,14,15)(H,16,17)
AUTHOR=Nihon Waters K.K.
LICENSE=CC BY-NC
SPLASH=splash10-00di-0090000000-a6aa253604ad390cd322
SUBMITTER=submitter = Nihon Waters (Nihon Waters K.K.)
SYNON_$=00in-source
COMPUTED_SMILES=O=C(O)C1(C(O)=NC=2C(CL)=CC=CC2Cl)CC1
COMPUTED_[2M+H-H2O]+=528.9845270159999
COMPUTED_[2M+K]+=585.0901970159999
COMPUTED_[M+H]+=274.00391850799997
COMPUTED_[2M+NA]+=568.981667016
COMPUTED_[2M+CL]-=581.4448970159999
COMPUTED_[2M+HAC-H]-=605.035927016
COMPUTED_[M-H20-H]-=253.97755850799996
COMPUTED_[M-H]-=271.988672508
COMPUTED_[2M-H]-=544.9846210159999
COMPUTED_[M+NA]+=295.985718508
COMPUTED_[M+H-H2O]+=255.98857850799996
COMPUTED_[2M+NH4]+=564.030477016
COMPUTED_[M+CL]-=308.44894850799994
COMPUTED_[M+NH4]+=291.034528508
COMPUTED_[M+K]+=312.09424850799996
COMPUTED_[2M+H]+=546.9998670159999
COMPUTED_[M+HAC-H]-=332.039978508
FIND_PEAK=ignore rel.int. < 5
COMPUTED_SPECTRAL_ENTROPY=0.3771611330669218
COMPUTED_NORMALIZED_ENTROPY=0.34330685807653655
COMPUTED_MASS_ACCURACY=326.121765354917
COMPUTED_MASS_ERROR=-0.08867250800000193
MONA_RATING=4.166666666666666
NUM_PEAKS=3
COMPOUND_NAME=Cyclanilide
SPECTRUM_ID=WA000200
ADDUCT=[M-H]-
MS_LEVEL=MS2
PRECURSOR_MZ=271.9
IONMODE=negative
NOMINAL_MASS=273
PARENT_MASS=272.99594850799997
RECORD_DATE=2016.01.19 (Created 2007.08.01, modified 2011.05.06)
160.0 0.00800801
228.0 0.11811812
272.0 1.0
END IONS

BEGIN IONS
CHARGE=1+
INCHIKEY=BIKACRYIQSLICJ-UHFFFAOYSA-N
INSTRUMENT_TYPE=LC-ESI-QQ
INSTRUMENT=QuattroPremier XE, Waters
COLLISION_ENERGY=40 V
FORMULA=C15H13ClFN5O5S
SMILES=CCOC(=N3)n(n1)c(C=C(F)3)nc1S(=O)(=O)Nc(c(Cl)2)c(ccc2)C(=O)OC
CAS=147150-35-4
INCHI=InChI=1S/C15H13ClFN5O5S/c1-3-27-15-18-10(17)7-11-19-14(20-22(11)15)28(24,25)21-12-8(13(23)26-2)5-4-6-9(12)16/h4-7,21H,3H2,1-2H3
AUTHOR=Nihon Waters K.K.
LICENSE=CC BY-NC
SPLASH=splash10-0udi-0910000000-25368b978841e2ecbd67
SUBMITTER=submitter = Nihon Waters (Nihon Waters K.K.)
SYNON_$=00in-source
COMPUTED_SMILES=O=C(OC)C=1C=CC=C(CL)C1NS(=O)(=O)C=2N=C3C=C(F)N=C(OCC)N3N2
COMPUTED_[2M+H-H2O]+=841.054620832
COMPUTED_[2M+K]+=897.160290832
COMPUTED_[M+H]+=430.038965416
COMPUTED_[2M+NA]+=881.051760832
COMPUTED_[2M+CL]-=893.514990832
COMPUTED_[2M+HAC-H]-=917.106020832
COMPUTED_[M-H20-H]-=410.012605416
COMPUTED_[M-H]-=428.023719416
COMPUTED_[2M-H]-=857.054714832
COMPUTED_[M+NA]+=452.020765416
COMPUTED_[M+H-H2O]+=412.023625416
COMPUTED_[2M+NH4]+=876.100570832
COMPUTED_[M+CL]-=464.48399541599997
COMPUTED_[M+NH4]+=447.069575416
COMPUTED_[M+K]+=468.129295416
COMPUTED_[2M+H]+=859.069960832
COMPUTED_[M+HAC-H]-=488.075025416
FIND_PEAK=ignore rel.int. < 5
COMPUTED_SPECTRAL_ENTROPY=2.874552566867973
COMPUTED_NORMALIZED_ENTROPY=0.714112154096775
COMPUTED_MASS_ACCURACY=90.61724651161946
COMPUTED_MASS_ERROR=-0.03896541599999637
MONA_RATING=4.545454545454546
NUM_PEAKS=56
COMPOUND_NAME=Cloransulam-methyl
SPECTRUM_ID=WA000199
ADDUCT=[M+H]+
MS_LEVEL=MS2
PRECURSOR_MZ=430.0
IONMODE=positive
NOMINAL_MASS=429
PARENT_MASS=429.030995416
RECORD_DATE=2016.01.19 (Created 2007.08.01, modified 2011.05.06)
73.0 0.02002002
74.0 0.00800801
90.0 0.00800801
97.0 0.00800801
101.0 0.00800801
103.0 0.02002002
109.0 0.00800801
111.0 0.02702703
113.0 0.08208208
115.0 0.00800801
117.0 0.00800801
123.0 0.01201201
124.0 0.09009009000000001
126.0 0.01201201
129.0 0.02002002
131.0 0.00800801
136.0 0.03903904
137.0 0.01201201
139.0 0.02402402
143.0 0.00800801
147.0 0.01601602
150.0 0.01201201
153.0 1.0
154.0 0.03103103
157.0 0.01201201
159.0 0.01601602
164.0 0.27427427000000004
165.0 0.035035039999999996
167.0 0.21521522
168.0 0.02402402
172.0 0.03903904
174.0 0.00800801
179.0 0.25525526
180.0 0.01601602
185.0 0.15715716000000002
186.0 0.01601602
188.0 0.00800801
194.0 0.035035039999999996
200.0 0.02002002
202.0 0.055055059999999996
204.0 0.01201201
206.0 0.00800801
215.0 0.00800801
216.0 0.00800801
223.0 0.02702703
230.0 0.09009009000000001
236.0 0.07107107
243.0 0.00800801
251.0 0.01601602
258.0 0.13713714
260.0 0.01201201
263.0 0.00800801
271.0 0.00800801
279.0 0.00800801
286.0 0.01201201
306.0 0.035035039999999996
END IONS

BEGIN IONS
CHARGE=1+
INCHIKEY=BIKACRYIQSLICJ-UHFFFAOYSA-N
INSTRUMENT_TYPE=LC-ESI-QQ
INSTRUMENT=QuattroPremier XE, Waters
COLLISION_ENERGY=30 V
FORMULA=C15H13ClFN5O5S
SMILES=CCOC(=N3)n(n1)c(C=C(F)3)nc1S(=O)(=O)Nc(c(Cl)2)c(ccc2)C(=O)OC
CAS=147150-35-4
INCHI=InChI=1S/C15H13ClFN5O5S/c1-3-27-15-18-10(17)7-11-19-14(20-22(11)15)28(24,25)21-12-8(13(23)26-2)5-4-6-9(12)16/h4-7,21H,3H2,1-2H3
AUTHOR=Nihon Waters K.K.
LICENSE=CC BY-NC
SPLASH=splash10-0a4r-0945000000-545799ca766841e497c4
SUBMITTER=submitter = Nihon Waters (Nihon Waters K.K.)
SYNON_$=00in-source
COMPUTED_SMILES=O=C(OC)C=1C=CC=C(CL)C1NS(=O)(=O)C=2N=C3C=C(F)N=C(OCC)N3N2
COMPUTED_[2M+H-H2O]+=841.054620832
COMPUTED_[2M+K]+=897.160290832
COMPUTED_[M+H]+=430.038965416
COMPUTED_[2M+NA]+=881.051760832
COMPUTED_[2M+CL]-=893.514990832
COMPUTED_[2M+HAC-H]-=917.106020832
COMPUTED_[M-H20-H]-=410.012605416
COMPUTED_[M-H]-=428.023719416
COMPUTED_[2M-H]-=857.054714832
COMPUTED_[M+NA]+=452.020765416
COMPUTED_[M+H-H2O]+=412.023625416
COMPUTED_[2M+NH4]+=876.100570832
COMPUTED_[M+CL]-=464.48399541599997
COMPUTED_[M+NH4]+=447.069575416
COMPUTED_[M+K]+=468.129295416
COMPUTED_[2M+H]+=859.069960832
COMPUTED_[M+HAC-H]-=488.075025416
FIND_PEAK=ignore rel.int. < 5
COMPUTED_SPECTRAL_ENTROPY=2.86599667268333
COMPUTED_NORMALIZED_ENTROPY=0.7119866518197104
COMPUTED_MASS_ACCURACY=90.61724651161946
COMPUTED_MASS_ERROR=-0.03896541599999637
MONA_RATING=4.545454545454546
NUM_PEAKS=56
COMPOUND_NAME=Cloransulam-methyl
SPECTRUM_ID=WA000198
ADDUCT=[M+H]+
MS_LEVEL=MS2
PRECURSOR_MZ=430.0
IONMODE=positive
NOMINAL_MASS=429
PARENT_MASS=429.030995416
RECORD_DATE=2016.01.19 (Created 2007.08.01, modified 2011.05.06)
73.0 0.08208208
74.0 0.00800801
100.0 0.00800801
111.0 0.01601602
113.0 0.03903904
124.0 0.02002002
129.0 0.01201201
138.0 0.01601602
140.0 0.01201201
144.0 0.00800801
147.0 0.02702703
153.0 0.75275275
154.0 0.02702703
157.0 0.02002002
159.0 0.00800801
164.0 0.11411410999999999
165.0 0.03103103
166.0 0.24324324
168.0 0.01601602
171.0 0.02702703
179.0 0.23923924
181.0 0.01601602
185.0 0.84684685
187.0 0.035035039999999996
194.0 0.14914915
195.0 0.00800801
200.0 0.02002002
202.0 0.05105105
203.0 0.02402402
206.0 0.01201201
216.0 0.01601602
220.0 0.01601602
223.0 0.01201201
230.0 0.15315315
236.0 0.10610611
243.0 0.00800801
251.0 0.03103103
258.0 0.57657658
259.0 0.05905906
261.0 0.00800801
262.0 0.035035039999999996
264.0 0.035035039999999996
271.0 0.01601602
277.0 0.01201201
279.0 0.05105105
286.0 0.05905906
287.0 0.00800801
298.0 0.02402402
306.0 1.0
307.0 0.02002002
324.0 0.01601602
327.0 0.00800801
342.0 0.01601602
370.0 0.54154154
371.0 0.02402402
398.0 0.01201201
END IONS

BEGIN IONS
CHARGE=1+
INCHIKEY=BIKACRYIQSLICJ-UHFFFAOYSA-N
INSTRUMENT_TYPE=LC-ESI-QQ
INSTRUMENT=QuattroPremier XE, Waters
COLLISION_ENERGY=20 V
FORMULA=C15H13ClFN5O5S
SMILES=CCOC(=N3)n(n1)c(C=C(F)3)nc1S(=O)(=O)Nc(c(Cl)2)c(ccc2)C(=O)OC
CAS=147150-35-4
INCHI=InChI=1S/C15H13ClFN5O5S/c1-3-27-15-18-10(17)7-11-19-14(20-22(11)15)28(24,25)21-12-8(13(23)26-2)5-4-6-9(12)16/h4-7,21H,3H2,1-2H3
AUTHOR=Nihon Waters K.K.
LICENSE=CC BY-NC
SPLASH=splash10-00dj-0109000000-1b3e205e0cb70ca89521
SUBMITTER=submitter = Nihon Waters (Nihon Waters K.K.)
SYNON_$=00in-source
COMPUTED_SMILES=O=C(OC)C=1C=CC=C(CL)C1NS(=O)(=O)C=2N=C3C=C(F)N=C(OCC)N3N2
COMPUTED_[2M+H-H2O]+=841.054620832
COMPUTED_[2M+K]+=897.160290832
COMPUTED_[M+H]+=430.038965416
COMPUTED_[2M+NA]+=881.051760832
COMPUTED_[2M+CL]-=893.514990832
COMPUTED_[2M+HAC-H]-=917.106020832
COMPUTED_[M-H20-H]-=410.012605416
COMPUTED_[M-H]-=428.023719416
COMPUTED_[2M-H]-=857.054714832
COMPUTED_[M+NA]+=452.020765416
COMPUTED_[M+H-H2O]+=412.023625416
COMPUTED_[2M+NH4]+=876.100570832
COMPUTED_[M+CL]-=464.48399541599997
COMPUTED_[M+NH4]+=447.069575416
COMPUTED_[M+K]+=468.129295416
COMPUTED_[2M+H]+=859.069960832
COMPUTED_[M+HAC-H]-=488.075025416
FIND_PEAK=ignore rel.int. < 5
COMPUTED_SPECTRAL_ENTROPY=1.6978175235310882
COMPUTED_NORMALIZED_ENTROPY=0.5766183424224788
COMPUTED_MASS_ACCURACY=90.61724651161946
COMPUTED_MASS_ERROR=-0.03896541599999637
MONA_RATING=4.545454545454546
NUM_PEAKS=19
COMPOUND_NAME=Cloransulam-methyl
SPECTRUM_ID=WA000197
ADDUCT=[M+H]+
MS_LEVEL=MS2
PRECURSOR_MZ=430.0
IONMODE=positive
NOMINAL_MASS=429
PARENT_MASS=429.030995416
RECORD_DATE=2016.01.19 (Created 2007.08.01, modified 2011.05.06)
73.0 0.01601602
147.0 0.00800801
153.0 0.02402402
185.0 0.27827828
186.0 0.01201201
194.0 0.00800801
258.0 0.03103103
306.0 0.15315315
307.0 0.01201201
326.0 0.00800801
334.0 0.01201201
341.0 0.00800801
342.0 0.03103103
370.0 1.0
371.0 0.05105105
398.0 0.56056056
399.0 0.02702703
402.0 0.00800801
430.0 0.01201201
END IONS

BEGIN IONS
CHARGE=1+
INCHIKEY=BIKACRYIQSLICJ-UHFFFAOYSA-N
INSTRUMENT_TYPE=LC-ESI-QQ
INSTRUMENT=QuattroPremier XE, Waters
COLLISION_ENERGY=10 V
FORMULA=C15H13ClFN5O5S
SMILES=CCOC(=N3)n(n1)c(C=C(F)3)nc1S(=O)(=O)Nc(c(Cl)2)c(ccc2)C(=O)OC
CAS=147150-35-4
INCHI=InChI=1S/C15H13ClFN5O5S/c1-3-27-15-18-10(17)7-11-19-14(20-22(11)15)28(24,25)21-12-8(13(23)26-2)5-4-6-9(12)16/h4-7,21H,3H2,1-2H3
AUTHOR=Nihon Waters K.K.
LICENSE=CC BY-NC
SPLASH=splash10-001j-0006900000-6b3db0952d9628ba1ea8
SUBMITTER=submitter = Nihon Waters (Nihon Waters K.K.)
SYNON_$=00in-source
COMPUTED_SMILES=O=C(OC)C=1C=CC=C(CL)C1NS(=O)(=O)C=2N=C3C=C(F)N=C(OCC)N3N2
COMPUTED_[2M+H-H2O]+=841.0546208319998
COMPUTED_[2M+K]+=897.1602908319999
COMPUTED_[M+H]+=430.03896541599994
COMPUTED_[2M+NA]+=881.0517608319999
COMPUTED_[2M+CL]-=893.5149908319999
COMPUTED_[2M+HAC-H]-=917.1060208319999
COMPUTED_[M-H20-H]-=410.01260541599993
COMPUTED_[M-H]-=428.02371941599995
COMPUTED_[2M-H]-=857.0547148319998
COMPUTED_[M+NA]+=452.02076541599996
COMPUTED_[M+H-H2O]+=412.02362541599996
COMPUTED_[2M+NH4]+=876.1005708319999
COMPUTED_[M+CL]-=464.48399541599997
COMPUTED_[M+NH4]+=447.06957541599996
COMPUTED_[M+K]+=468.12929541599993
COMPUTED_[2M+H]+=859.0699608319999
COMPUTED_[M+HAC-H]-=488.07502541599996
FIND_PEAK=ignore rel.int. < 5
COMPUTED_SPECTRAL_ENTROPY=0.9511201327149752
COMPUTED_NORMALIZED_ENTROPY=0.5308302531950603
COMPUTED_MASS_ACCURACY=90.61724651148727
COMPUTED_MASS_ERROR=-0.03896541599993952
MONA_RATING=4.545454545454546
NUM_PEAKS=6
COMPOUND_NAME=Cloransulam-methyl
SPECTRUM_ID=WA000196
ADDUCT=[M+H]+
MS_LEVEL=MS2
PRECURSOR_MZ=430.0
IONMODE=positive
NOMINAL_MASS=429
PARENT_MASS=429.03099541599994
RECORD_DATE=2016.01.19 (Created 2007.08.01, modified 2011.05.06)
185.0 0.00800801
370.0 0.02402402
398.0 0.69369369
399.0 0.02402402
430.0 1.0
431.0 0.06306306
END IONS

BEGIN IONS
CHARGE=1+
INCHIKEY=CABMTIJINOIHOD-UHFFFAOYSA-N
INSTRUMENT_TYPE=LC-ESI-QQ
INSTRUMENT=QuattroPremier XE, Waters
COLLISION_ENERGY=40 V
FORMULA=C17H17N3O3
SMILES=OC(=O)c(c2)c(nc(c3)c(ccc3)2)C(N1)=NC(C)(C(C)C)C(=O)1
CAS=81335-37-7
INCHI=InChI=1S/C17H17N3O3/c1-9(2)17(3)16(23)19-14(20-17)13-11(15(21)22)8-10-6-4-5-7-12(10)18-13/h4-9H,1-3H3,(H,21,22)(H,19,20,23)
AUTHOR=Nihon Waters K.K.
LICENSE=CC BY-NC
SPLASH=splash10-0f8j-3900000000-c6c0929b9e3cd34aeb9d
SUBMITTER=submitter = Nihon Waters (Nihon Waters K.K.)
SYNON_$=00in-source
COMPUTED_[2M+CL]-=657.706982808
COMPUTED_[2M+HAC-H]-=681.2980128080001
COMPUTED_SMILES=O=C(O)C=1C=C2C=CC=CC2=NC1C3=NC(=O)C(N3)(C)C(C)C
COMPUTED_[2M+H-H2O]+=605.246612808
COMPUTED_[2M+K]+=661.352282808
COMPUTED_[M+H]+=312.134961404
COMPUTED_[2M+NA]+=645.2437528080001
COMPUTED_[M-H20-H]-=292.108601404
COMPUTED_[M-H]-=310.11971540400003
COMPUTED_[2M-H]-=621.246706808
COMPUTED_[M+NA]+=334.11676140400004
COMPUTED_[M+H-H2O]+=294.11962140400004
COMPUTED_[2M+NH4]+=640.2925628080001
COMPUTED_[M+CL]-=346.579991404
COMPUTED_[M+NH4]+=329.16557140400005
COMPUTED_[M+K]+=350.225291404
COMPUTED_[2M+H]+=623.261952808
COMPUTED_[M+HAC-H]-=370.17102140400004
FIND_PEAK=ignore rel.int. < 5
COMPUTED_SPECTRAL_ENTROPY=2.5813634285548037
COMPUTED_NORMALIZED_ENTROPY=0.7096363674170595
COMPUTED_MASS_ACCURACY=112.01987824415437
COMPUTED_MASS_ERROR=-0.034961404000000584
MONA_RATING=4.545454545454546
NUM_PEAKS=38
COMPOUND_NAME=Imazaquin
SPECTRUM_ID=WA000191
ADDUCT=[M+H]+
MS_LEVEL=MS2
PRECURSOR_MZ=312.1
IONMODE=positive
NOMINAL_MASS=311
PARENT_MASS=311.126991404
RECORD_DATE=2016.01.19 (Created 2007.08.01, modified 2011.05.06)
55.0 0.00800801
67.0 0.02002002
69.0 0.56056056
71.0 0.06306306
72.0 0.01201201
83.0 0.00800801
86.0 0.6036036
87.0 0.01201201
96.0 0.01201201
100.0 0.02402402
115.0 0.02002002
126.0 0.00800801
128.0 0.49049048999999995
129.0 0.035035039999999996
142.0 0.04704705
153.0 0.76476476
154.0 0.27827828
156.0 0.06706706999999999
157.0 0.02002002
167.0 0.01201201
169.0 0.01201201
171.0 0.01201201
181.0 1.0
183.0 0.14114114
194.0 0.00800801
197.0 0.47447447
199.0 0.44744745
200.0 0.02002002
205.0 0.00800801
207.0 0.01201201
210.0 0.01201201
222.0 0.02002002
224.0 0.09009009000000001
225.0 0.01601602
234.0 0.01601602
236.0 0.00800801
249.0 0.02402402
252.0 0.03103103
END IONS

BEGIN IONS
CHARGE=1+
INCHIKEY=CABMTIJINOIHOD-UHFFFAOYSA-N
INSTRUMENT_TYPE=LC-ESI-QQ
INSTRUMENT=QuattroPremier XE, Waters
COLLISION_ENERGY=30 V
FORMULA=C17H17N3O3
SMILES=OC(=O)c(c2)c(nc(c3)c(ccc3)2)C(N1)=NC(C)(C(C)C)C(=O)1
CAS=81335-37-7
INCHI=InChI=1S/C17H17N3O3/c1-9(2)17(3)16(23)19-14(20-17)13-11(15(21)22)8-10-6-4-5-7-12(10)18-13/h4-9H,1-3H3,(H,21,22)(H,19,20,23)
AUTHOR=Nihon Waters K.K.
LICENSE=CC BY-NC
SPLASH=splash10-00kk-7960000000-c867ab005c4dd49899fb
SUBMITTER=submitter = Nihon Waters (Nihon Waters K.K.)
SYNON_$=00in-source
COMPUTED_SMILES=O=C(O)C=1C=C2C=CC=CC2=NC1C3=NC(=O)C(N3)(C)C(C)C
COMPUTED_[2M+H-H2O]+=605.246612808
COMPUTED_[2M+K]+=661.352282808
COMPUTED_[M+H]+=312.134961404
COMPUTED_[2M+NA]+=645.2437528080001
COMPUTED_[2M+CL]-=657.706982808
COMPUTED_[2M+HAC-H]-=681.2980128080001
COMPUTED_[M-H20-H]-=292.108601404
COMPUTED_[M-H]-=310.11971540400003
COMPUTED_[2M-H]-=621.246706808
COMPUTED_[M+NA]+=334.11676140400004
COMPUTED_[M+H-H2O]+=294.11962140400004
COMPUTED_[2M+NH4]+=640.2925628080001
COMPUTED_[M+CL]-=346.579991404
COMPUTED_[M+NH4]+=329.16557140400005
COMPUTED_[M+K]+=350.225291404
COMPUTED_[2M+H]+=623.261952808
COMPUTED_[M+HAC-H]-=370.17102140400004
COMPUTED_SPECTRAL_ENTROPY=2.559946897664991
FIND_PEAK=ignore rel.int. < 5
COMPUTED_NORMALIZED_ENTROPY=0.7089463010778824
COMPUTED_MASS_ACCURACY=112.01987824415437
COMPUTED_MASS_ERROR=-0.034961404000000584
MONA_RATING=4.545454545454546
NUM_PEAKS=37
COMPOUND_NAME=Imazaquin
SPECTRUM_ID=WA000190
ADDUCT=[M+H]+
MS_LEVEL=MS2
PRECURSOR_MZ=312.1
IONMODE=positive
NOMINAL_MASS=311
PARENT_MASS=311.126991404
RECORD_DATE=2016.01.19 (Created 2007.08.01, modified 2011.05.06)
58.0 0.02002002
67.0 0.01601602
69.0 0.7687687699999999
71.0 0.03103103
73.0 0.00800801
86.0 0.76076076
87.0 0.01201201
97.0 0.05105105
128.0 0.035035039999999996
142.0 0.01601602
153.0 0.05905906
155.0 0.08208208
156.0 0.01201201
171.0 0.00800801
181.0 0.35735736
183.0 0.07807808
184.0 0.00800801
186.0 0.00800801
197.0 0.29029029
199.0 1.0
200.0 0.035035039999999996
210.0 0.01201201
222.0 0.01601602
224.0 0.4004004
225.0 0.07407407
227.0 0.00800801
234.0 0.00800801
241.0 0.00800801
249.0 0.1021021
252.0 0.42742743
253.0 0.01201201
265.0 0.01601602
267.0 0.17217217
268.0 0.00800801
270.0 0.043043040000000005
284.0 0.00800801
312.0 0.01201201
END IONS

BEGIN IONS
CHARGE=1+
INCHIKEY=CABMTIJINOIHOD-UHFFFAOYSA-N
INSTRUMENT_TYPE=LC-ESI-QQ
INSTRUMENT=QuattroPremier XE, Waters
COLLISION_ENERGY=20 V
FORMULA=C17H17N3O3
SMILES=OC(=O)c(c2)c(nc(c3)c(ccc3)2)C(N1)=NC(C)(C(C)C)C(=O)1
CAS=81335-37-7
INCHI=InChI=1S/C17H17N3O3/c1-9(2)17(3)16(23)19-14(20-17)13-11(15(21)22)8-10-6-4-5-7-12(10)18-13/h4-9H,1-3H3,(H,21,22)(H,19,20,23)
AUTHOR=Nihon Waters K.K.
LICENSE=CC BY-NC
SPLASH=splash10-03xr-1194000000-69afef3a74ac3505caec
SUBMITTER=submitter = Nihon Waters (Nihon Waters K.K.)
SYNON_$=00in-source
COMPUTED_SMILES=O=C(O)C=1C=C2C=CC=CC2=NC1C3=NC(=O)C(N3)(C)C(C)C
COMPUTED_[2M+H-H2O]+=605.246612808
COMPUTED_[2M+K]+=661.352282808
COMPUTED_[M+H]+=312.134961404
COMPUTED_[2M+NA]+=645.2437528080001
COMPUTED_[2M+CL]-=657.706982808
COMPUTED_[2M+HAC-H]-=681.2980128080001
COMPUTED_[M-H20-H]-=292.108601404
COMPUTED_[M-H]-=310.11971540400003
COMPUTED_[2M-H]-=621.246706808
COMPUTED_[M+NA]+=334.11676140400004
COMPUTED_[M+H-H2O]+=294.11962140400004
COMPUTED_[2M+NH4]+=640.2925628080001
COMPUTED_[M+CL]-=346.579991404
COMPUTED_[M+NH4]+=329.16557140400005
COMPUTED_[M+K]+=350.225291404
COMPUTED_[2M+H]+=623.261952808
COMPUTED_[M+HAC-H]-=370.17102140400004
FIND_PEAK=ignore rel.int. < 5
COMPUTED_SPECTRAL_ENTROPY=2.3570211525232034
COMPUTED_NORMALIZED_ENTROPY=0.6929974617854533
COMPUTED_MASS_ACCURACY=112.01987824415437
COMPUTED_MASS_ERROR=-0.034961404000000584
MONA_RATING=4.545454545454546
NUM_PEAKS=30
COMPOUND_NAME=Imazaquin
SPECTRUM_ID=WA000189
ADDUCT=[M+H]+
MS_LEVEL=MS2
PRECURSOR_MZ=312.1
IONMODE=positive
NOMINAL_MASS=311
PARENT_MASS=311.126991404
RECORD_DATE=2016.01.19 (Created 2007.08.01, modified 2011.05.06)
58.0 0.01201201
69.0 0.08208208
70.0 0.00800801
86.0 0.31731732
97.0 0.03103103
114.0 0.00800801
155.0 0.00800801
181.0 0.01201201
197.0 0.05105105
199.0 0.26226226
200.0 0.00800801
216.0 0.00800801
223.0 0.05105105
225.0 0.04704705
227.0 0.00800801
249.0 0.055055059999999996
252.0 0.23123123
253.0 0.00800801
265.0 0.08208208
267.0 0.94894895
268.0 0.00800801
270.0 0.32932933
271.0 0.01601602
281.0 0.02002002
284.0 0.18418418
285.0 0.00800801
294.0 0.08208208
295.0 0.00800801
312.0 1.0
313.0 0.043043040000000005
END IONS

BEGIN IONS
CHARGE=1+
INCHIKEY=CABMTIJINOIHOD-UHFFFAOYSA-N
INSTRUMENT_TYPE=LC-ESI-QQ
INSTRUMENT=QuattroPremier XE, Waters
COLLISION_ENERGY=10 V
FORMULA=C17H17N3O3
SMILES=OC(=O)c(c2)c(nc(c3)c(ccc3)2)C(N1)=NC(C)(C(C)C)C(=O)1
CAS=81335-37-7
INCHI=InChI=1S/C17H17N3O3/c1-9(2)17(3)16(23)19-14(20-17)13-11(15(21)22)8-10-6-4-5-7-12(10)18-13/h4-9H,1-3H3,(H,21,22)(H,19,20,23)
AUTHOR=Nihon Waters K.K.
LICENSE=CC BY-NC
SPLASH=splash10-03di-0009000000-59a53949a11b316d37e2
SUBMITTER=submitter = Nihon Waters (Nihon Waters K.K.)
SYNON_$=00in-source
COMPUTED_SMILES=O=C(O)C=1C=C2C=CC=CC2=NC1C3=NC(=O)C(N3)(C)C(C)C
COMPUTED_[2M+H-H2O]+=605.246612808
COMPUTED_[2M+K]+=661.352282808
COMPUTED_[M+H]+=312.134961404
COMPUTED_[2M+NA]+=645.2437528080001
COMPUTED_[2M+CL]-=657.706982808
COMPUTED_[2M+HAC-H]-=681.2980128080001
COMPUTED_[M-H20-H]-=292.108601404
COMPUTED_[M-H]-=310.11971540400003
COMPUTED_[2M-H]-=621.246706808
COMPUTED_[M+NA]+=334.11676140400004
COMPUTED_[M+H-H2O]+=294.11962140400004
COMPUTED_[2M+NH4]+=640.2925628080001
COMPUTED_[M+CL]-=346.579991404
COMPUTED_[M+NH4]+=329.16557140400005
COMPUTED_[M+K]+=350.225291404
COMPUTED_[2M+H]+=623.261952808
COMPUTED_[M+HAC-H]-=370.17102140400004
FIND_PEAK=ignore rel.int. < 5
COMPUTED_SPECTRAL_ENTROPY=0.21538814699878556
COMPUTED_NORMALIZED_ENTROPY=0.1960547403487621
COMPUTED_MASS_ACCURACY=112.01987824415437
COMPUTED_MASS_ERROR=-0.034961404000000584
MONA_RATING=4.545454545454546
NUM_PEAKS=3
COMPOUND_NAME=Imazaquin
SPECTRUM_ID=WA000188
ADDUCT=[M+H]+
MS_LEVEL=MS2
PRECURSOR_MZ=312.1
IONMODE=positive
NOMINAL_MASS=311
PARENT_MASS=311.126991404
RECORD_DATE=2016.01.19 (Created 2007.08.01, modified 2011.05.06)
281.0 0.00800801
312.0 1.0
313.0 0.043043040000000005
END IONS

BEGIN IONS
CHARGE=1-
INCHIKEY=NUFNQYOELLVIPL-UHFFFAOYSA-N
INSTRUMENT_TYPE=LC-ESI-QQ
INSTRUMENT=QuattroPremier XE, Waters
COLLISION_ENERGY=40 V
FORMULA=C14H7ClF3NO5
SMILES=O=N(=O)c(c2)c(C(O)=O)cc(c2)Oc(c1)c(Cl)cc(c1)C(F)(F)F
CAS=50594-66-6
INCHI=InChI=1S/C14H7ClF3NO5/c15-10-5-7(14(16,17)18)1-4-12(10)24-8-2-3-11(19(22)23)9(6-8)13(20)21/h1-6H,(H,20,21)
AUTHOR=Nihon Waters K.K.
LICENSE=CC BY-NC
SPLASH=splash10-0002-0900000000-c5a4eae4a0f4e7c8ae80
SUBMITTER=submitter = Nihon Waters (Nihon Waters K.K.)
SYNON_$=00in-source
COMPUTED_SMILES=O=C(O)C1=CC(OC2=CC=C(C=C2CL)C(F)(F)F)=CC=C1N(=O)=O
COMPUTED_[2M+H-H2O]+=704.985599328
COMPUTED_[2M+K]+=761.0912693280001
COMPUTED_[M+H]+=362.00445466400004
COMPUTED_[2M+NA]+=744.9827393280001
COMPUTED_[2M+CL]-=757.445969328
COMPUTED_[2M+HAC-H]-=781.0369993280001
COMPUTED_[M-H20-H]-=341.978094664
COMPUTED_[M-H]-=359.98920866400005
COMPUTED_[2M-H]-=720.985693328
COMPUTED_[M+NA]+=383.98625466400006
COMPUTED_[M+H-H2O]+=343.98911466400006
COMPUTED_[2M+NH4]+=740.0315493280001
COMPUTED_[M+CL]-=396.449484664
COMPUTED_[M+NH4]+=379.03506466400006
COMPUTED_[M+K]+=400.09478466400003
COMPUTED_[2M+H]+=723.0009393280001
COMPUTED_[M+HAC-H]-=420.04051466400006
FIND_PEAK=ignore rel.int. < 5
COMPUTED_SPECTRAL_ENTROPY=1.04170079569244
COMPUTED_NORMALIZED_ENTROPY=0.4740984633238238
COMPUTED_MASS_ACCURACY=29.975933333206385
COMPUTED_MASS_ERROR=0.010791335999954299
MONA_RATING=4.545454545454546
NUM_PEAKS=9
COMPOUND_NAME=Acifluorfen
SPECTRUM_ID=WA000187
ADDUCT=[M-H]-
MS_LEVEL=MS2
PRECURSOR_MZ=360.0
IONMODE=negative
NOMINAL_MASS=361
PARENT_MASS=360.99648466400004
RECORD_DATE=2016.01.19 (Created 2007.08.01, modified 2011.05.06)
106.0 0.035035039999999996
130.0 0.00800801
136.0 0.05105105
153.0 0.00800801
174.0 0.15315315
195.0 1.0
196.0 0.01201201
202.0 0.03903904
221.0 0.06706706999999999
END IONS

BEGIN IONS
CHARGE=1-
INCHIKEY=NUFNQYOELLVIPL-UHFFFAOYSA-N
INSTRUMENT_TYPE=LC-ESI-QQ
INSTRUMENT=QuattroPremier XE, Waters
COLLISION_ENERGY=30 V
FORMULA=C14H7ClF3NO5
SMILES=O=N(=O)c(c2)c(C(O)=O)cc(c2)Oc(c1)c(Cl)cc(c1)C(F)(F)F
CAS=50594-66-6
INCHI=InChI=1S/C14H7ClF3NO5/c15-10-5-7(14(16,17)18)1-4-12(10)24-8-2-3-11(19(22)23)9(6-8)13(20)21/h1-6H,(H,20,21)
AUTHOR=Nihon Waters K.K.
LICENSE=CC BY-NC
SPLASH=splash10-0002-0910000000-6a31617652d0fb2a3119
SUBMITTER=submitter = Nihon Waters (Nihon Waters K.K.)
SYNON_$=00in-source
COMPUTED_SMILES=O=C(O)C1=CC(OC2=CC=C(C=C2CL)C(F)(F)F)=CC=C1N(=O)=O
COMPUTED_[2M+H-H2O]+=704.985599328
COMPUTED_[2M+K]+=761.0912693280001
COMPUTED_[M+H]+=362.00445466400004
COMPUTED_[2M+NA]+=744.9827393280001
COMPUTED_[2M+CL]-=757.445969328
COMPUTED_[2M+HAC-H]-=781.0369993280001
COMPUTED_[M-H20-H]-=341.978094664
COMPUTED_[M-H]-=359.98920866400005
COMPUTED_[2M-H]-=720.985693328
COMPUTED_[M+NA]+=383.98625466400006
COMPUTED_[M+H-H2O]+=343.98911466400006
COMPUTED_[2M+NH4]+=740.0315493280001
COMPUTED_[M+CL]-=396.449484664
COMPUTED_[M+NH4]+=379.03506466400006
COMPUTED_[M+K]+=400.09478466400003
COMPUTED_[2M+H]+=723.0009393280001
COMPUTED_[M+HAC-H]-=420.04051466400006
FIND_PEAK=ignore rel.int. < 5
COMPUTED_SPECTRAL_ENTROPY=1.109492883421631
COMPUTED_NORMALIZED_ENTROPY=0.4204125734484826
COMPUTED_MASS_ACCURACY=29.975933333206385
COMPUTED_MASS_ERROR=0.010791335999954299
MONA_RATING=4.545454545454546
NUM_PEAKS=14
COMPOUND_NAME=Acifluorfen
SPECTRUM_ID=WA000186
ADDUCT=[M-H]-
MS_LEVEL=MS2
PRECURSOR_MZ=360.0
IONMODE=negative
NOMINAL_MASS=361
PARENT_MASS=360.99648466400004
RECORD_DATE=2016.01.19 (Created 2007.08.01, modified 2011.05.06)
107.0 0.02402402
112.0 0.00800801
119.0 0.01601602
137.0 0.043043040000000005
159.0 0.00800801
174.0 0.01201201
195.0 1.0
196.0 0.02702703
197.0 0.01201201
201.0 0.00800801
219.0 0.00800801
222.0 0.20820820999999998
223.0 0.01201201
285.0 0.01201201
END IONS

BEGIN IONS
CHARGE=1-
INCHIKEY=NUFNQYOELLVIPL-UHFFFAOYSA-N
INSTRUMENT_TYPE=LC-ESI-QQ
INSTRUMENT=QuattroPremier XE, Waters
COLLISION_ENERGY=20 V
FORMULA=C14H7ClF3NO5
CAS=50594-66-6
SMILES=O=N(=O)c(c2)c(C(O)=O)cc(c2)Oc(c1)c(Cl)cc(c1)C(F)(F)F
INCHI=InChI=1S/C14H7ClF3NO5/c15-10-5-7(14(16,17)18)1-4-12(10)24-8-2-3-11(19(22)23)9(6-8)13(20)21/h1-6H,(H,20,21)
AUTHOR=Nihon Waters K.K.
LICENSE=CC BY-NC
SPLASH=splash10-007a-0591000000-8ed2598dec7f342fea9e
SUBMITTER=submitter = Nihon Waters (Nihon Waters K.K.)
SYNON_$=00in-source
COMPUTED_SMILES=O=C(O)C1=CC(OC2=CC=C(C=C2CL)C(F)(F)F)=CC=C1N(=O)=O
COMPUTED_[2M+H-H2O]+=704.985599328
COMPUTED_[2M+K]+=761.0912693280001
COMPUTED_[M+H]+=362.00445466400004
COMPUTED_[2M+NA]+=744.9827393280001
COMPUTED_[2M+CL]-=757.445969328
COMPUTED_[2M+HAC-H]-=781.0369993280001
COMPUTED_[M-H20-H]-=341.978094664
COMPUTED_[M-H]-=359.98920866400005
COMPUTED_[2M-H]-=720.985693328
COMPUTED_[M+NA]+=383.98625466400006
COMPUTED_[M+H-H2O]+=343.98911466400006
COMPUTED_[2M+NH4]+=740.0315493280001
COMPUTED_[M+CL]-=396.449484664
COMPUTED_[M+NH4]+=379.03506466400006
COMPUTED_[M+K]+=400.09478466400003
COMPUTED_[2M+H]+=723.0009393280001
COMPUTED_[M+HAC-H]-=420.04051466400006
FIND_PEAK=ignore rel.int. < 5
COMPUTED_SPECTRAL_ENTROPY=2.1849357309536526
COMPUTED_NORMALIZED_ENTROPY=0.6097179248883753
COMPUTED_MASS_ACCURACY=29.975933333206385
COMPUTED_MASS_ERROR=0.010791335999954299
MONA_RATING=4.545454545454546
NUM_PEAKS=36
COMPOUND_NAME=Acifluorfen
SPECTRUM_ID=WA000185
ADDUCT=[M-H]-
MS_LEVEL=MS2
PRECURSOR_MZ=360.0
IONMODE=negative
NOMINAL_MASS=361
PARENT_MASS=360.99648466400004
RECORD_DATE=2016.01.19 (Created 2007.08.01, modified 2011.05.06)
112.0 0.00800801
119.0 0.00800801
123.0 0.01601602
130.0 0.00800801
134.0 0.00800801
136.0 0.19619620000000002
138.0 0.02402402
169.0 0.00800801
175.0 0.01201201
179.0 0.01201201
189.0 0.01601602
195.0 1.0
206.0 0.01201201
210.0 0.01201201
215.0 0.00800801
222.0 0.8118118099999999
231.0 0.03103103
232.0 0.00800801
235.0 0.03103103
241.0 0.02002002
243.0 0.00800801
250.0 0.03903904
255.0 0.02702703
258.0 0.04704705
271.0 0.01201201
277.0 0.00800801
280.0 0.01201201
285.0 0.11411410999999999
286.0 0.7807807800000001
287.0 0.06706706999999999
315.0 0.01201201
316.0 0.34534535
318.0 0.00800801
334.0 0.00800801
363.0 0.00800801
369.0 0.00800801
END IONS

BEGIN IONS
CHARGE=1-
INCHIKEY=NUFNQYOELLVIPL-UHFFFAOYSA-N
INSTRUMENT_TYPE=LC-ESI-QQ
INSTRUMENT=QuattroPremier XE, Waters
COLLISION_ENERGY=10 V
FORMULA=C14H7ClF3NO5
SMILES=O=N(=O)c(c2)c(C(O)=O)cc(c2)Oc(c1)c(Cl)cc(c1)C(F)(F)F
CAS=50594-66-6
INCHI=InChI=1S/C14H7ClF3NO5/c15-10-5-7(14(16,17)18)1-4-12(10)24-8-2-3-11(19(22)23)9(6-8)13(20)21/h1-6H,(H,20,21)
AUTHOR=Nihon Waters K.K.
LICENSE=CC BY-NC
SPLASH=splash10-014i-0009000000-d9bd77721bda8f0ad4b3
SUBMITTER=submitter = Nihon Waters (Nihon Waters K.K.)
SYNON_$=00in-source
COMPUTED_SMILES=O=C(O)C1=CC(OC2=CC=C(C=C2CL)C(F)(F)F)=CC=C1N(=O)=O
COMPUTED_[2M+H-H2O]+=704.985599328
COMPUTED_[2M+K]+=761.0912693280001
COMPUTED_[M+H]+=362.00445466400004
COMPUTED_[2M+NA]+=744.9827393280001
COMPUTED_[2M+CL]-=757.445969328
COMPUTED_[2M+HAC-H]-=781.0369993280001
COMPUTED_[M-H20-H]-=341.978094664
COMPUTED_[M-H]-=359.98920866400005
COMPUTED_[2M-H]-=720.985693328
COMPUTED_[M+NA]+=383.98625466400006
COMPUTED_[M+H-H2O]+=343.98911466400006
COMPUTED_[2M+NH4]+=740.0315493280001
COMPUTED_[M+CL]-=396.449484664
COMPUTED_[M+NH4]+=379.03506466400006
COMPUTED_[M+K]+=400.09478466400003
COMPUTED_[2M+H]+=723.0009393280001
COMPUTED_[M+HAC-H]-=420.04051466400006
FIND_PEAK=ignore rel.int. < 5
COMPUTED_SPECTRAL_ENTROPY=0.630571938178516
COMPUTED_NORMALIZED_ENTROPY=0.3240498737748203
COMPUTED_MASS_ACCURACY=29.975933333206385
COMPUTED_MASS_ERROR=0.010791335999954299
MONA_RATING=4.545454545454546
NUM_PEAKS=7
COMPOUND_NAME=Acifluorfen
SPECTRUM_ID=WA000184
ADDUCT=[M-H]-
MS_LEVEL=MS2
PRECURSOR_MZ=360.0
IONMODE=negative
NOMINAL_MASS=361
PARENT_MASS=360.99648466400004
RECORD_DATE=2016.01.19 (Created 2007.08.01, modified 2011.05.06)
138.0 0.00800801
286.0 0.04704705
298.0 0.00800801
314.0 0.02402402
316.0 1.0
317.0 0.05905906
360.0 0.02002002
END IONS

BEGIN IONS
CHARGE=1-
INCHIKEY=NRXQIUSYPAHGNM-UHFFFAOYSA-N
INSTRUMENT_TYPE=LC-ESI-QQ
INSTRUMENT=QuattroPremier XE, Waters
COLLISION_ENERGY=50 V
FORMULA=C7H3I2NO
SMILES=N#Cc(c1)cc(I)c(O)c(I)1
CAS=1689-83-4
INCHI=InChI=1S/C7H3I2NO/c8-5-1-4(3-10)2-6(9)7(5)11/h1-2,11H
AUTHOR=Nihon Waters K.K.
LICENSE=CC BY-NC
SPLASH=splash10-004i-0900000000-217f7a487f7b89bede7c
SUBMITTER=submitter = Nihon Waters (Nihon Waters K.K.)
SYNON_$=00in-source
COMPUTED_SMILES=N#CC1=CC(I)=C(O)C(I)=C1
COMPUTED_[2M+H-H2O]+=724.653449432
COMPUTED_[2M+K]+=780.759119432
COMPUTED_[M+H]+=371.838379716
COMPUTED_[2M+NA]+=764.6505894320001
COMPUTED_[2M+CL]-=777.113819432
COMPUTED_[2M+HAC-H]-=800.7048494320001
COMPUTED_[M-H20-H]-=351.812019716
COMPUTED_[M-H]-=369.82313371600003
COMPUTED_[2M-H]-=740.653543432
COMPUTED_[M+NA]+=393.82017971600004
COMPUTED_[M+H-H2O]+=353.82303971600004
COMPUTED_[2M+NH4]+=759.6993994320001
COMPUTED_[M+CL]-=406.28340971600005
COMPUTED_[M+NH4]+=388.86898971600004
COMPUTED_[M+K]+=409.928709716
COMPUTED_[2M+H]+=742.668789432
COMPUTED_[M+HAC-H]-=429.87443971600004
FIND_PEAK=ignore rel.int. < 5
COMPUTED_SPECTRAL_ENTROPY=0.5251952416077873
COMPUTED_NORMALIZED_ENTROPY=0.4780533105491673
COMPUTED_MASS_ACCURACY=62.55737155223908
COMPUTED_MASS_ERROR=-0.023133716000018012
MONA_RATING=4.545454545454546
NUM_PEAKS=3
COMPOUND_NAME=Ioxynil
SPECTRUM_ID=WA000183
ADDUCT=[M-H]-
MS_LEVEL=MS2
PRECURSOR_MZ=369.8
IONMODE=negative
NOMINAL_MASS=371
PARENT_MASS=370.830409716
RECORD_DATE=2016.01.19 (Created 2007.08.01, modified 2011.05.06)
116.0 0.09809810000000001
126.0 1.0
215.0 0.07807808
END IONS

BEGIN IONS
CHARGE=1-
INCHIKEY=NRXQIUSYPAHGNM-UHFFFAOYSA-N
INSTRUMENT_TYPE=LC-ESI-QQ
INSTRUMENT=QuattroPremier XE, Waters
COLLISION_ENERGY=40 V
FORMULA=C7H3I2NO
SMILES=N#Cc(c1)cc(I)c(O)c(I)1
CAS=1689-83-4
INCHI=InChI=1S/C7H3I2NO/c8-5-1-4(3-10)2-6(9)7(5)11/h1-2,11H
AUTHOR=Nihon Waters K.K.
LICENSE=CC BY-NC
SPLASH=splash10-004i-0910000000-c382cceb8cf320b79953
SUBMITTER=submitter = Nihon Waters (Nihon Waters K.K.)
SYNON_$=00in-source
COMPUTED_SMILES=N#CC1=CC(I)=C(O)C(I)=C1
COMPUTED_[2M+H-H2O]+=724.653449432
COMPUTED_[2M+K]+=780.759119432
COMPUTED_[M+H]+=371.838379716
COMPUTED_[2M+NA]+=764.6505894320001
COMPUTED_[2M+CL]-=777.113819432
COMPUTED_[2M+HAC-H]-=800.7048494320001
COMPUTED_[M-H20-H]-=351.812019716
COMPUTED_[M-H]-=369.82313371600003
COMPUTED_[2M-H]-=740.653543432
COMPUTED_[M+NA]+=393.82017971600004
COMPUTED_[M+H-H2O]+=353.82303971600004
COMPUTED_[2M+NH4]+=759.6993994320001
COMPUTED_[M+CL]-=406.28340971600005
COMPUTED_[M+NH4]+=388.86898971600004
COMPUTED_[M+K]+=409.928709716
COMPUTED_[2M+H]+=742.668789432
COMPUTED_[M+HAC-H]-=429.87443971600004
FIND_PEAK=ignore rel.int. < 5
COMPUTED_SPECTRAL_ENTROPY=0.847751904499473
COMPUTED_NORMALIZED_ENTROPY=0.473139346580214
COMPUTED_MASS_ACCURACY=62.55737155223908
COMPUTED_MASS_ERROR=-0.023133716000018012
MONA_RATING=4.545454545454546
NUM_PEAKS=6
COMPOUND_NAME=Ioxynil
SPECTRUM_ID=WA000182
ADDUCT=[M-H]-
MS_LEVEL=MS2
PRECURSOR_MZ=369.8
IONMODE=negative
NOMINAL_MASS=371
PARENT_MASS=370.830409716
RECORD_DATE=2016.01.19 (Created 2007.08.01, modified 2011.05.06)
115.0 0.07407407
124.0 0.00800801
126.0 1.0
215.0 0.18018018000000002
242.0 0.01601602
369.0 0.04704705
END IONS

BEGIN IONS
CHARGE=1-
INCHIKEY=NRXQIUSYPAHGNM-UHFFFAOYSA-N
INSTRUMENT_TYPE=LC-ESI-QQ
INSTRUMENT=QuattroPremier XE, Waters
COLLISION_ENERGY=30 V
FORMULA=C7H3I2NO
SMILES=N#Cc(c1)cc(I)c(O)c(I)1
CAS=1689-83-4
INCHI=InChI=1S/C7H3I2NO/c8-5-1-4(3-10)2-6(9)7(5)11/h1-2,11H
AUTHOR=Nihon Waters K.K.
LICENSE=CC BY-NC
SPLASH=splash10-004i-0923000000-21d039f2d83c3e5e0109
SUBMITTER=submitter = Nihon Waters (Nihon Waters K.K.)
SYNON_$=00in-source
COMPUTED_SMILES=N#CC1=CC(I)=C(O)C(I)=C1
COMPUTED_[2M+H-H2O]+=724.653449432
COMPUTED_[2M+K]+=780.759119432
COMPUTED_[M+H]+=371.838379716
COMPUTED_[2M+NA]+=764.6505894320001
COMPUTED_[2M+CL]-=777.113819432
COMPUTED_[2M+HAC-H]-=800.7048494320001
COMPUTED_[M-H20-H]-=351.812019716
COMPUTED_[M-H]-=369.82313371600003
COMPUTED_[2M-H]-=740.653543432
COMPUTED_[M+NA]+=393.82017971600004
COMPUTED_[M+H-H2O]+=353.82303971600004
COMPUTED_[2M+NH4]+=759.6993994320001
COMPUTED_[M+CL]-=406.28340971600005
COMPUTED_[M+NH4]+=388.86898971600004
COMPUTED_[M+K]+=409.928709716
COMPUTED_[2M+H]+=742.668789432
COMPUTED_[M+HAC-H]-=429.87443971600004
FIND_PEAK=ignore rel.int. < 5
COMPUTED_SPECTRAL_ENTROPY=1.1855736143655626
COMPUTED_NORMALIZED_ENTROPY=0.661681232736191
COMPUTED_MASS_ACCURACY=62.55737155223908
COMPUTED_MASS_ERROR=-0.023133716000018012
MONA_RATING=4.545454545454546
NUM_PEAKS=6
COMPOUND_NAME=Ioxynil
SPECTRUM_ID=WA000181
ADDUCT=[M-H]-
MS_LEVEL=MS2
PRECURSOR_MZ=369.8
IONMODE=negative
NOMINAL_MASS=371
PARENT_MASS=370.830409716
RECORD_DATE=2016.01.19 (Created 2007.08.01, modified 2011.05.06)
116.0 0.06306306
126.0 1.0
214.0 0.20820820999999998
243.0 0.07407407
370.0 0.38438437999999997
371.0 0.00800801
END IONS

BEGIN IONS
CHARGE=1-
INCHIKEY=NRXQIUSYPAHGNM-UHFFFAOYSA-N
INSTRUMENT_TYPE=LC-ESI-QQ
INSTRUMENT=QuattroPremier XE, Waters
COLLISION_ENERGY=20 V
FORMULA=C7H3I2NO
SMILES=N#Cc(c1)cc(I)c(O)c(I)1
CAS=1689-83-4
INCHI=InChI=1S/C7H3I2NO/c8-5-1-4(3-10)2-6(9)7(5)11/h1-2,11H
AUTHOR=Nihon Waters K.K.
LICENSE=CC BY-NC
SPLASH=splash10-00di-0209000000-6dbfdb9b5ad055763d49
SUBMITTER=submitter = Nihon Waters (Nihon Waters K.K.)
SYNON_$=00in-source
COMPUTED_SMILES=N#CC1=CC(I)=C(O)C(I)=C1
COMPUTED_[2M+H-H2O]+=724.6534494319999
COMPUTED_[2M+K]+=780.7591194319999
COMPUTED_[M+H]+=371.83837971599996
COMPUTED_[2M+NA]+=764.650589432
COMPUTED_[2M+CL]-=777.1138194319999
COMPUTED_[2M+HAC-H]-=800.704849432
COMPUTED_[M-H20-H]-=351.81201971599995
COMPUTED_[M-H]-=369.823133716
COMPUTED_[2M-H]-=740.6535434319999
COMPUTED_[M+NA]+=393.820179716
COMPUTED_[M+H-H2O]+=353.823039716
COMPUTED_[2M+NH4]+=759.699399432
COMPUTED_[M+CL]-=406.28340971599994
COMPUTED_[M+NH4]+=388.868989716
COMPUTED_[M+K]+=409.92870971599996
COMPUTED_[2M+H]+=742.6687894319999
COMPUTED_[M+HAC-H]-=429.874439716
FIND_PEAK=ignore rel.int. < 5
COMPUTED_SPECTRAL_ENTROPY=0.758079834169016
COMPUTED_NORMALIZED_ENTROPY=0.42309241122393515
COMPUTED_MASS_ACCURACY=62.55737155208537
COMPUTED_MASS_ERROR=-0.02313371599996117
MONA_RATING=4.545454545454546
NUM_PEAKS=6
COMPOUND_NAME=Ioxynil
SPECTRUM_ID=WA000180
ADDUCT=[M-H]-
MS_LEVEL=MS2
PRECURSOR_MZ=369.8
IONMODE=negative
NOMINAL_MASS=371
PARENT_MASS=370.830409716
RECORD_DATE=2016.01.19 (Created 2007.08.01, modified 2011.05.06)
126.0 0.24724725
215.0 0.02002002
243.0 0.035035039999999996
369.0 0.00800801
370.0 1.0
371.0 0.01201201
END IONS

BEGIN IONS
CHARGE=1-
INCHIKEY=NRXQIUSYPAHGNM-UHFFFAOYSA-N
INSTRUMENT_TYPE=LC-ESI-QQ
INSTRUMENT=QuattroPremier XE, Waters
COLLISION_ENERGY=10 V
FORMULA=C7H3I2NO
SMILES=N#Cc(c1)cc(I)c(O)c(I)1
CAS=1689-83-4
INCHI=InChI=1S/C7H3I2NO/c8-5-1-4(3-10)2-6(9)7(5)11/h1-2,11H
AUTHOR=Nihon Waters K.K.
LICENSE=CC BY-NC
SPLASH=splash10-014i-0009000000-d6537b77f81d7ff2fe07
SUBMITTER=submitter = Nihon Waters (Nihon Waters K.K.)
SYNON_$=00in-source
COMPUTED_SMILES=N#CC1=CC(I)=C(O)C(I)=C1
COMPUTED_[2M+H-H2O]+=724.6534494319999
COMPUTED_[2M+K]+=780.7591194319999
COMPUTED_[M+H]+=371.83837971599996
COMPUTED_[2M+NA]+=764.650589432
COMPUTED_[2M+CL]-=777.1138194319999
COMPUTED_[2M+HAC-H]-=800.704849432
COMPUTED_[M-H20-H]-=351.81201971599995
COMPUTED_[M-H]-=369.823133716
COMPUTED_[2M-H]-=740.6535434319999
COMPUTED_[M+NA]+=393.820179716
COMPUTED_[M+H-H2O]+=353.823039716
COMPUTED_[2M+NH4]+=759.699399432
COMPUTED_[M+CL]-=406.28340971599994
COMPUTED_[M+NH4]+=388.868989716
COMPUTED_[M+K]+=409.92870971599996
COMPUTED_[2M+H]+=742.6687894319999
COMPUTED_[M+HAC-H]-=429.874439716
COMPUTED_NORMALIZED_ENTROPY=0.0668345487657822
COMPUTED_MASS_ACCURACY=62.55737155208537
COMPUTED_MASS_ERROR=-0.02313371599996117
FIND_PEAK=ignore rel.int. < 5
COMPUTED_SPECTRAL_ENTROPY=0.0463261790409981
MONA_RATING=3.846153846153846
NUM_PEAKS=2
COMPOUND_NAME=Ioxynil
SPECTRUM_ID=WA000179
ADDUCT=[M-H]-
MS_LEVEL=MS2
PRECURSOR_MZ=369.8
IONMODE=negative
NOMINAL_MASS=371
PARENT_MASS=370.830409716
RECORD_DATE=2016.01.19 (Created 2007.08.01, modified 2011.05.06)
369.0 1.0
371.0 0.00800801
END IONS

BEGIN IONS
CHARGE=1+
INCHIKEY=QCAWEPFNJXQPAN-UHFFFAOYSA-N
INSTRUMENT_TYPE=LC-ESI-QQ
INSTRUMENT=QuattroPremier XE, Waters
COLLISION_ENERGY=60 V
FORMULA=C22H28N2O3
SMILES=COc(c2)c(C)c(cc2)C(=O)NN(C(C)(C)C)C(=O)c(c1)cc(C)cc(C)1
CAS=161050-58-4
INCHI=InChI=1S/C22H28N2O3/c1-14-11-15(2)13-17(12-14)21(26)24(22(4,5)6)23-20(25)18-9-8-10-19(27-7)16(18)3/h8-13H,1-7H3,(H,23,25)
AUTHOR=Nihon Waters K.K.
LICENSE=CC BY-NC
SPLASH=splash10-054o-9300000000-5d2ec5a71c91501dc6e1
SUBMITTER=submitter = Nihon Waters (Nihon Waters K.K.)
SYNON_$=00in-source
COMPUTED_SMILES=O=C(C=1C=C(C=C(C1)C)C)N(N=C(O)C=2C=CC=C(OC)C2C)C(C)(C)C
COMPUTED_[2M+H-H2O]+=719.4126155119999
COMPUTED_[2M+K]+=775.5182855119999
COMPUTED_[M+H]+=369.21796275599996
COMPUTED_[2M+NA]+=759.409755512
COMPUTED_[2M+CL]-=771.8729855119999
COMPUTED_[2M+HAC-H]-=795.464015512
COMPUTED_[M-H20-H]-=349.19160275599995
COMPUTED_[M-H]-=367.202716756
COMPUTED_[2M-H]-=735.4127095119999
COMPUTED_[M+NA]+=391.199762756
COMPUTED_[M+H-H2O]+=351.202622756
COMPUTED_[2M+NH4]+=754.458565512
COMPUTED_[M+CL]-=403.662992756
COMPUTED_[M+NH4]+=386.248572756
COMPUTED_[M+K]+=407.30829275599996
COMPUTED_[2M+H]+=737.4279555119999
COMPUTED_[M+HAC-H]-=427.254022756
FIND_PEAK=ignore rel.int. < 5
COMPUTED_SPECTRAL_ENTROPY=1.817549915771264
COMPUTED_NORMALIZED_ENTROPY=0.7086104489681019
COMPUTED_MASS_ACCURACY=249.21405865002086
COMPUTED_MASS_ERROR=0.09203724400003921
MONA_RATING=4.545454545454546
NUM_PEAKS=13
COMPOUND_NAME=Methoxyfenozide
SPECTRUM_ID=WA000166
ADDUCT=[M+H]+
MS_LEVEL=MS2
PRECURSOR_MZ=369.31
IONMODE=positive
NOMINAL_MASS=368
PARENT_MASS=368.20999275599996
RECORD_DATE=2016.01.19 (Created 2007.08.01, modified 2011.05.06)
57.0 0.01601602
65.0 0.11811812
72.0 0.01601602
77.0 0.4044044
79.0 0.33733734
80.0 0.01201201
91.0 1.0
92.0 0.043043040000000005
103.0 0.20820820999999998
105.0 0.53753754
106.0 0.02702703
133.0 0.02702703
149.0 0.01201201
END IONS

BEGIN IONS
CHARGE=1+
INCHIKEY=QCAWEPFNJXQPAN-UHFFFAOYSA-N
INSTRUMENT_TYPE=LC-ESI-QQ
INSTRUMENT=QuattroPremier XE, Waters
COLLISION_ENERGY=50 V
FORMULA=C22H28N2O3
CAS=161050-58-4
SMILES=COc(c2)c(C)c(cc2)C(=O)NN(C(C)(C)C)C(=O)c(c1)cc(C)cc(C)1
INCHI=InChI=1S/C22H28N2O3/c1-14-11-15(2)13-17(12-14)21(26)24(22(4,5)6)23-20(25)18-9-8-10-19(27-7)16(18)3/h8-13H,1-7H3,(H,23,25)
AUTHOR=Nihon Waters K.K.
LICENSE=CC BY-NC
SPLASH=splash10-052f-9600000000-a72080ab690fde3e1919
SUBMITTER=submitter = Nihon Waters (Nihon Waters K.K.)
SYNON_$=00in-source
COMPUTED_SMILES=O=C(C=1C=C(C=C(C1)C)C)N(N=C(O)C=2C=CC=C(OC)C2C)C(C)(C)C
COMPUTED_[2M+H-H2O]+=719.412615512
COMPUTED_[2M+K]+=775.518285512
COMPUTED_[M+H]+=369.217962756
COMPUTED_[2M+NA]+=759.4097555120001
COMPUTED_[2M+CL]-=771.872985512
COMPUTED_[2M+HAC-H]-=795.4640155120001
COMPUTED_[M-H20-H]-=349.191602756
COMPUTED_[M-H]-=367.20271675600003
COMPUTED_[2M-H]-=735.412709512
COMPUTED_[M+NA]+=391.19976275600004
COMPUTED_[M+H-H2O]+=351.20262275600004
COMPUTED_[2M+NH4]+=754.4585655120001
COMPUTED_[M+CL]-=403.662992756
COMPUTED_[M+NH4]+=386.24857275600004
COMPUTED_[M+K]+=407.308292756
COMPUTED_[2M+H]+=737.427955512
COMPUTED_[M+HAC-H]-=427.25402275600004
FIND_PEAK=ignore rel.int. < 5
COMPUTED_SPECTRAL_ENTROPY=1.7897580855683441
COMPUTED_NORMALIZED_ENTROPY=0.6977752135190773
COMPUTED_MASS_ACCURACY=249.21405864986696
COMPUTED_MASS_ERROR=0.09203724399998237
MONA_RATING=4.545454545454546
NUM_PEAKS=13
COMPOUND_NAME=Methoxyfenozide
SPECTRUM_ID=WA000165
ADDUCT=[M+H]+
MS_LEVEL=MS2
PRECURSOR_MZ=369.31
IONMODE=positive
NOMINAL_MASS=368
PARENT_MASS=368.209992756
RECORD_DATE=2016.01.19 (Created 2007.08.01, modified 2011.05.06)
57.0 0.00800801
65.0 0.035035039999999996
72.0 0.03103103
77.0 0.19219218999999998
79.0 0.18818819
91.0 1.0
93.0 0.11811812
103.0 0.13313313000000002
105.0 0.73773774
106.0 0.02702703
121.0 0.01201201
133.0 0.07407407
149.0 0.06706706999999999
END IONS

BEGIN IONS
CHARGE=1+
INCHIKEY=QCAWEPFNJXQPAN-UHFFFAOYSA-N
INSTRUMENT_TYPE=LC-ESI-QQ
INSTRUMENT=QuattroPremier XE, Waters
COLLISION_ENERGY=40 V
FORMULA=C22H28N2O3
SMILES=COc(c2)c(C)c(cc2)C(=O)NN(C(C)(C)C)C(=O)c(c1)cc(C)cc(C)1
CAS=161050-58-4
INCHI=InChI=1S/C22H28N2O3/c1-14-11-15(2)13-17(12-14)21(26)24(22(4,5)6)23-20(25)18-9-8-10-19(27-7)16(18)3/h8-13H,1-7H3,(H,23,25)
AUTHOR=Nihon Waters K.K.
LICENSE=CC BY-NC
SPLASH=splash10-0007-7900000000-fc6bde2b2cc2fc43d95d
SUBMITTER=submitter = Nihon Waters (Nihon Waters K.K.)
SYNON_$=00in-source
COMPUTED_SMILES=O=C(C=1C=C(C=C(C1)C)C)N(N=C(O)C=2C=CC=C(OC)C2C)C(C)(C)C
COMPUTED_[2M+H-H2O]+=719.4126155119999
COMPUTED_[2M+K]+=775.5182855119999
COMPUTED_[M+H]+=369.21796275599996
COMPUTED_[2M+NA]+=759.409755512
COMPUTED_[2M+CL]-=771.8729855119999
COMPUTED_[2M+HAC-H]-=795.464015512
COMPUTED_[M-H20-H]-=349.19160275599995
COMPUTED_[M-H]-=367.202716756
COMPUTED_[2M-H]-=735.4127095119999
COMPUTED_[M+NA]+=391.199762756
COMPUTED_[M+H-H2O]+=351.202622756
COMPUTED_[2M+NH4]+=754.458565512
COMPUTED_[M+CL]-=403.662992756
COMPUTED_[M+NH4]+=386.248572756
COMPUTED_[M+K]+=407.30829275599996
COMPUTED_[2M+H]+=737.4279555119999
COMPUTED_[M+HAC-H]-=427.254022756
FIND_PEAK=ignore rel.int. < 5
COMPUTED_SPECTRAL_ENTROPY=1.9798319408613347
COMPUTED_NORMALIZED_ENTROPY=0.7140734307185548
COMPUTED_MASS_ACCURACY=249.21405865002086
COMPUTED_MASS_ERROR=0.09203724400003921
MONA_RATING=4.545454545454546
NUM_PEAKS=16
COMPOUND_NAME=Methoxyfenozide
SPECTRUM_ID=WA000164
ADDUCT=[M+H]+
MS_LEVEL=MS2
PRECURSOR_MZ=369.31
IONMODE=positive
NOMINAL_MASS=368
PARENT_MASS=368.20999275599996
RECORD_DATE=2016.01.19 (Created 2007.08.01, modified 2011.05.06)
57.0 0.00800801
65.0 0.00800801
72.0 0.07807808
77.0 0.12912913
79.0 0.07807808
91.0 1.0
93.0 0.26226226
94.0 0.00800801
103.0 0.07107107
105.0 0.5955956
106.0 0.01601602
121.0 0.03903904
133.0 0.36436436
134.0 0.01201201
149.0 0.6866866899999999
150.0 0.02002002
END IONS

BEGIN IONS
CHARGE=1+
INCHIKEY=QCAWEPFNJXQPAN-UHFFFAOYSA-N
INSTRUMENT_TYPE=LC-ESI-QQ
INSTRUMENT=QuattroPremier XE, Waters
COLLISION_ENERGY=30 V
FORMULA=C22H28N2O3
SMILES=COc(c2)c(C)c(cc2)C(=O)NN(C(C)(C)C)C(=O)c(c1)cc(C)cc(C)1
CAS=161050-58-4
INCHI=InChI=1S/C22H28N2O3/c1-14-11-15(2)13-17(12-14)21(26)24(22(4,5)6)23-20(25)18-9-8-10-19(27-7)16(18)3/h8-13H,1-7H3,(H,23,25)
AUTHOR=Nihon Waters K.K.
LICENSE=CC BY-NC
SPLASH=splash10-0002-1900000000-32a26f5c6c3adcf44229
SUBMITTER=submitter = Nihon Waters (Nihon Waters K.K.)
SYNON_$=00in-source
COMPUTED_SMILES=O=C(C=1C=C(C=C(C1)C)C)N(N=C(O)C=2C=CC=C(OC)C2C)C(C)(C)C
COMPUTED_[2M+H-H2O]+=719.4126155119999
COMPUTED_[2M+K]+=775.5182855119999
COMPUTED_[M+H]+=369.21796275599996
COMPUTED_[2M+NA]+=759.409755512
COMPUTED_[2M+CL]-=771.8729855119999
COMPUTED_[2M+HAC-H]-=795.464015512
COMPUTED_[M-H20-H]-=349.19160275599995
COMPUTED_[M-H]-=367.202716756
COMPUTED_[2M-H]-=735.4127095119999
COMPUTED_[M+NA]+=391.199762756
COMPUTED_[M+H-H2O]+=351.202622756
COMPUTED_[2M+NH4]+=754.458565512
COMPUTED_[M+CL]-=403.662992756
COMPUTED_[M+NH4]+=386.248572756
COMPUTED_[M+K]+=407.30829275599996
COMPUTED_[2M+H]+=737.4279555119999
COMPUTED_[M+HAC-H]-=427.254022756
FIND_PEAK=ignore rel.int. < 5
COMPUTED_SPECTRAL_ENTROPY=1.5750946646660071
COMPUTED_NORMALIZED_ENTROPY=0.6568654947252363
COMPUTED_MASS_ACCURACY=249.21405865002086
COMPUTED_MASS_ERROR=0.09203724400003921
MONA_RATING=4.545454545454546
NUM_PEAKS=11
COMPOUND_NAME=Methoxyfenozide
SPECTRUM_ID=WA000163
ADDUCT=[M+H]+
MS_LEVEL=MS2
PRECURSOR_MZ=369.31
IONMODE=positive
NOMINAL_MASS=368
PARENT_MASS=368.20999275599996
RECORD_DATE=2016.01.19 (Created 2007.08.01, modified 2011.05.06)
72.0 0.06306306
77.0 0.02002002
91.0 0.17217217
93.0 0.08608608999999999
103.0 0.01601602
105.0 0.18018018000000002
121.0 0.03103103
133.0 0.48648649
134.0 0.01201201
149.0 1.0
150.0 0.02702703
END IONS

BEGIN IONS
CHARGE=1+
INCHIKEY=QCAWEPFNJXQPAN-UHFFFAOYSA-N
INSTRUMENT_TYPE=LC-ESI-QQ
INSTRUMENT=QuattroPremier XE, Waters
COLLISION_ENERGY=20 V
FORMULA=C22H28N2O3
SMILES=COc(c2)c(C)c(cc2)C(=O)NN(C(C)(C)C)C(=O)c(c1)cc(C)cc(C)1
CAS=161050-58-4
INCHI=InChI=1S/C22H28N2O3/c1-14-11-15(2)13-17(12-14)21(26)24(22(4,5)6)23-20(25)18-9-8-10-19(27-7)16(18)3/h8-13H,1-7H3,(H,23,25)
AUTHOR=Nihon Waters K.K.
LICENSE=CC BY-NC
SPLASH=splash10-0002-0900000000-d051aa10af44fa9fe08b
SUBMITTER=submitter = Nihon Waters (Nihon Waters K.K.)
SYNON_$=00in-source
COMPUTED_SMILES=O=C(C=1C=C(C=C(C1)C)C)N(N=C(O)C=2C=CC=C(OC)C2C)C(C)(C)C
COMPUTED_[2M+H-H2O]+=719.412615512
COMPUTED_[2M+K]+=775.518285512
COMPUTED_[M+H]+=369.217962756
COMPUTED_[2M+NA]+=759.4097555120001
COMPUTED_[2M+CL]-=771.872985512
COMPUTED_[2M+HAC-H]-=795.4640155120001
COMPUTED_[M-H20-H]-=349.191602756
COMPUTED_[M-H]-=367.20271675600003
COMPUTED_[2M-H]-=735.412709512
COMPUTED_[M+NA]+=391.19976275600004
COMPUTED_[M+H-H2O]+=351.20262275600004
COMPUTED_[2M+NH4]+=754.4585655120001
COMPUTED_[M+CL]-=403.662992756
COMPUTED_[M+NH4]+=386.24857275600004
COMPUTED_[M+K]+=407.308292756
COMPUTED_[2M+H]+=737.427955512
COMPUTED_[M+HAC-H]-=427.25402275600004
FIND_PEAK=ignore rel.int. < 5
COMPUTED_SPECTRAL_ENTROPY=0.9775657459137336
COMPUTED_NORMALIZED_ENTROPY=0.4449093442687021
COMPUTED_MASS_ACCURACY=249.21405864986696
COMPUTED_MASS_ERROR=0.09203724399998237
MONA_RATING=4.545454545454546
NUM_PEAKS=9
COMPOUND_NAME=Methoxyfenozide
SPECTRUM_ID=WA000162
ADDUCT=[M+H]+
MS_LEVEL=MS2
PRECURSOR_MZ=369.31
IONMODE=positive
NOMINAL_MASS=368
PARENT_MASS=368.209992756
RECORD_DATE=2016.01.19 (Created 2007.08.01, modified 2011.05.06)
72.0 0.05905906
91.0 0.01201201
93.0 0.00800801
105.0 0.00800801
133.0 0.38438437999999997
134.0 0.00800801
149.0 1.0
150.0 0.03103103
219.0 0.00800801
END IONS

BEGIN IONS
CHARGE=1+
INCHIKEY=QCAWEPFNJXQPAN-UHFFFAOYSA-N
INSTRUMENT_TYPE=LC-ESI-QQ
INSTRUMENT=QuattroPremier XE, Waters
COLLISION_ENERGY=10 V
FORMULA=C22H28N2O3
SMILES=COc(c2)c(C)c(cc2)C(=O)NN(C(C)(C)C)C(=O)c(c1)cc(C)cc(C)1
CAS=161050-58-4
INCHI=InChI=1S/C22H28N2O3/c1-14-11-15(2)13-17(12-14)21(26)24(22(4,5)6)23-20(25)18-9-8-10-19(27-7)16(18)3/h8-13H,1-7H3,(H,23,25)
AUTHOR=Nihon Waters K.K.
LICENSE=CC BY-NC
SPLASH=splash10-01ot-0907000000-996ca2e6e1a3ebb21498
SUBMITTER=submitter = Nihon Waters (Nihon Waters K.K.)
SYNON_$=00in-source
COMPUTED_SMILES=O=C(C=1C=C(C=C(C1)C)C)N(N=C(O)C=2C=CC=C(OC)C2C)C(C)(C)C
COMPUTED_[2M+H-H2O]+=719.412615512
COMPUTED_[2M+K]+=775.518285512
COMPUTED_[M+H]+=369.217962756
COMPUTED_[2M+NA]+=759.4097555120001
COMPUTED_[2M+CL]-=771.872985512
COMPUTED_[2M+HAC-H]-=795.4640155120001
COMPUTED_[M-H20-H]-=349.191602756
COMPUTED_[M-H]-=367.20271675600003
COMPUTED_[2M-H]-=735.412709512
COMPUTED_[M+NA]+=391.19976275600004
COMPUTED_[M+H-H2O]+=351.20262275600004
COMPUTED_[2M+NH4]+=754.4585655120001
COMPUTED_[M+CL]-=403.662992756
COMPUTED_[M+NH4]+=386.24857275600004
COMPUTED_[M+K]+=407.308292756
COMPUTED_[2M+H]+=737.427955512
COMPUTED_[M+HAC-H]-=427.25402275600004
FIND_PEAK=ignore rel.int. < 5
COMPUTED_SPECTRAL_ENTROPY=1.2271667200019247
COMPUTED_NORMALIZED_ENTROPY=0.5901424470969173
COMPUTED_MASS_ACCURACY=249.21405864986696
COMPUTED_MASS_ERROR=0.09203724399998237
MONA_RATING=4.545454545454546
NUM_PEAKS=8
COMPOUND_NAME=Methoxyfenozide
SPECTRUM_ID=WA000161
ADDUCT=[M+H]+
MS_LEVEL=MS2
PRECURSOR_MZ=369.31
IONMODE=positive
NOMINAL_MASS=368
PARENT_MASS=368.209992756
RECORD_DATE=2016.01.19 (Created 2007.08.01, modified 2011.05.06)
72.0 0.01201201
133.0 0.14114114
149.0 1.0
150.0 0.02002002
219.0 0.10610611
313.0 0.9449449400000001
314.0 0.055055059999999996
369.0 0.01201201
END IONS

BEGIN IONS
CHARGE=1+
INCHIKEY=VOZIAWLUULBIPN-LRBNAKOISA-N
INSTRUMENT_TYPE=LC-ESI-QQ
INSTRUMENT=QuattroPremier XE, Waters
COLLISION_ENERGY=50 V
FORMULA=C32H46O7
SMILES=C(C14O)([H])(O5)C(O)C(=CC1(C(OC(C2)([H])CC(CC=C(C)CC(C)C=CC=C4C5)(OC(O3)2CCC(C)C3CC)[H])=O)[H])C
CAS=51596-11-3
INCHI=InChI=1S/C32H46O7/c1-6-27-21(4)12-13-31(39-27)17-25-16-24(38-31)11-10-20(3)14-19(2)8-7-9-23-18-36-29-28(33)22(5)15-26(30(34)37-25)32(23,29)35/h7-10,15,19,21,24-29,33,35H,6,11-14,16-18H2,1-5H3/b8-7+,20-10+,23-9+/t19-,21-,24+,25-,26-,27+,28+,29+,31+,32+/m0/s1
AUTHOR=Nihon Waters K.K.
LICENSE=CC BY-NC
SPLASH=splash10-0a4i-0930000000-28bfca899895e1be581d
SUBMITTER=submitter = Nihon Waters (Nihon Waters K.K.)
SYNON_$=00in-source
COMPUTED_SMILES=O=C1OC2CC(OC3(OC(CC)C(C)CC3)C2)CC=C(C)CC(C=CC=C4COC5C(O)C(=CC1C45O)C)C
COMPUTED_[2M+H-H2O]+=1067.641337624
COMPUTED_[2M+K]+=1123.7470076240002
COMPUTED_[M+H]+=543.332323812
COMPUTED_[2M+NA]+=1107.638477624
COMPUTED_[2M+CL]-=1120.101707624
COMPUTED_[2M+HAC-H]-=1143.692737624
COMPUTED_[M-H20-H]-=523.3059638120001
COMPUTED_[M-H]-=541.317077812
COMPUTED_[2M-H]-=1083.641431624
COMPUTED_[M+NA]+=565.314123812
COMPUTED_[M+H-H2O]+=525.316983812
COMPUTED_[2M+NH4]+=1102.687287624
COMPUTED_[M+CL]-=577.777353812
COMPUTED_[M+NH4]+=560.362933812
COMPUTED_[M+K]+=581.422653812
COMPUTED_[2M+H]+=1085.656677624
COMPUTED_[M+HAC-H]-=601.368383812
FIND_PEAK=ignore rel.int. < 5
COMPUTED_SPECTRAL_ENTROPY=4.2724717457409245
COMPUTED_NORMALIZED_ENTROPY=0.8763689882680553
COMPUTED_MASS_ACCURACY=32.33164287080709
COMPUTED_MASS_ERROR=-0.01698381200003496
MONA_RATING=4.545454545454546
NUM_PEAKS=131
COMPOUND_NAME=Milbemycin A4
SPECTRUM_ID=WA000156
ADDUCT=[M-H2O+H]+
MS_LEVEL=MS2
PRECURSOR_MZ=525.3
IONMODE=positive
NOMINAL_MASS=542
PARENT_MASS=542.324353812
RECORD_DATE=2016.01.19 (Created 2007.08.01, modified 2012.10.22)
103.0 0.01201201
105.0 0.24724725
107.0 0.19619620000000002
109.0 1.0
111.0 0.05105105
113.0 0.02702703
115.0 0.01201201
117.0 0.035035039999999996
119.0 0.11811812
121.0 0.15315315
123.0 0.05905906
125.0 0.03903904
127.0 0.05905906
129.0 0.07807808
131.0 0.12512513
133.0 0.23923924
135.0 0.1021021
137.0 0.03103103
141.0 0.02402402
143.0 0.05105105
145.0 0.23923924
147.0 0.18818819
149.0 0.09409409
151.0 0.02402402
153.0 0.055055059999999996
155.0 0.06306306
157.0 0.12112112
159.0 0.14514515
161.0 0.21221221
162.0 0.035035039999999996
165.0 0.03103103
167.0 0.03103103
169.0 0.09409409
171.0 0.1021021
173.0 0.08608608999999999
175.0 0.05105105
177.0 0.02402402
179.0 0.035035039999999996
180.0 0.03903904
181.0 0.03103103
183.0 0.08208208
185.0 0.10610611
187.0 0.043043040000000005
189.0 0.05905906
191.0 0.03903904
193.0 0.04704705
195.0 0.09009009000000001
197.0 0.14114114
198.0 0.043043040000000005
201.0 0.02702703
203.0 0.02002002
205.0 0.02702703
207.0 0.03903904
209.0 0.10610611
211.0 0.05905906
212.0 0.04704705
214.0 0.02002002
218.0 0.02402402
220.0 0.035035039999999996
222.0 0.043043040000000005
223.0 0.01201201
225.0 0.055055059999999996
227.0 0.06706706999999999
229.0 0.02702703
231.0 0.02002002
233.0 0.03103103
235.0 0.06306306
237.0 0.07107107
239.0 0.04704705
240.0 0.01201201
242.0 0.02402402
244.0 0.02402402
247.0 0.06306306
249.0 0.04704705
251.0 0.07107107
253.0 0.03903904
255.0 0.055055059999999996
256.0 0.00800801
259.0 0.035035039999999996
261.0 0.06706706999999999
263.0 0.035035039999999996
265.0 0.02702703
266.0 0.03103103
268.0 0.00800801
269.0 0.04704705
271.0 0.02702703
273.0 0.03903904
276.0 0.02402402
277.0 0.06306306
281.0 0.02702703
283.0 0.02402402
285.0 0.035035039999999996
287.0 0.043043040000000005
289.0 0.00800801
291.0 0.035035039999999996
293.0 0.02702703
295.0 0.00800801
297.0 0.03903904
299.0 0.02702703
301.0 0.03103103
303.0 0.02402402
306.0 0.00800801
308.0 0.03103103
309.0 0.00800801
312.0 0.01201201
313.0 0.02002002
315.0 0.01601602
317.0 0.01601602
318.0 0.00800801
320.0 0.02702703
322.0 0.01601602
327.0 0.00800801
328.0 0.02002002
332.0 0.02702703
335.0 0.02402402
337.0 0.00800801
341.0 0.02002002
343.0 0.00800801
352.0 0.00800801
354.0 0.01201201
356.0 0.01201201
359.0 0.01601602
363.0 0.01601602
373.0 0.02002002
382.0 0.00800801
454.0 0.00800801
462.0 0.01201201
562.0 0.00800801
END IONS

BEGIN IONS
CHARGE=1+
INCHIKEY=VOZIAWLUULBIPN-LRBNAKOISA-N
INSTRUMENT_TYPE=LC-ESI-QQ
INSTRUMENT=QuattroPremier XE, Waters
COLLISION_ENERGY=40 V
FORMULA=C32H46O7
SMILES=C(C14O)([H])(O5)C(O)C(=CC1(C(OC(C2)([H])CC(CC=C(C)CC(C)C=CC=C4C5)(OC(O3)2CCC(C)C3CC)[H])=O)[H])C
CAS=51596-11-3
INCHI=InChI=1S/C32H46O7/c1-6-27-21(4)12-13-31(39-27)17-25-16-24(38-31)11-10-20(3)14-19(2)8-7-9-23-18-36-29-28(33)22(5)15-26(30(34)37-25)32(23,29)35/h7-10,15,19,21,24-29,33,35H,6,11-14,16-18H2,1-5H3/b8-7+,20-10+,23-9+/t19-,21-,24+,25-,26-,27+,28+,29+,31+,32+/m0/s1
AUTHOR=Nihon Waters K.K.
LICENSE=CC BY-NC
SPLASH=splash10-0a4i-0921000000-b56973f5e7935878d67b
SUBMITTER=submitter = Nihon Waters (Nihon Waters K.K.)
SYNON_$=00in-source
COMPUTED_SMILES=O=C1OC2CC(OC3(OC(CC)C(C)CC3)C2)CC=C(C)CC(C=CC=C4COC5C(O)C(=CC1C45O)C)C
COMPUTED_[2M+H-H2O]+=1067.641337624
COMPUTED_[2M+K]+=1123.7470076240002
COMPUTED_[M+H]+=543.332323812
COMPUTED_[2M+NA]+=1107.638477624
COMPUTED_[2M+CL]-=1120.101707624
COMPUTED_[2M+HAC-H]-=1143.692737624
COMPUTED_[M-H20-H]-=523.3059638120001
COMPUTED_[M-H]-=541.317077812
COMPUTED_[2M-H]-=1083.641431624
COMPUTED_[M+NA]+=565.314123812
COMPUTED_[M+H-H2O]+=525.316983812
COMPUTED_[2M+NH4]+=1102.687287624
COMPUTED_[M+CL]-=577.777353812
COMPUTED_[M+NH4]+=560.362933812
COMPUTED_[M+K]+=581.422653812
COMPUTED_[2M+H]+=1085.656677624
COMPUTED_[M+HAC-H]-=601.368383812
FIND_PEAK=ignore rel.int. < 5
COMPUTED_SPECTRAL_ENTROPY=4.351222074333924
COMPUTED_NORMALIZED_ENTROPY=0.8573542961766427
COMPUTED_MASS_ACCURACY=32.33164287080709
COMPUTED_MASS_ERROR=-0.01698381200003496
MONA_RATING=4.545454545454546
NUM_PEAKS=160
COMPOUND_NAME=Milbemycin A4
SPECTRUM_ID=WA000155
ADDUCT=[M-H2O+H]+
MS_LEVEL=MS2
PRECURSOR_MZ=525.3
IONMODE=positive
NOMINAL_MASS=542
PARENT_MASS=542.324353812
RECORD_DATE=2016.01.19 (Created 2007.08.01, modified 2012.10.22)
105.0 0.12912913
107.0 0.11811812
109.0 1.0
110.0 0.08208208
113.0 0.05905906
119.0 0.14114114
121.0 0.11411410999999999
123.0 0.06306306
125.0 0.06706706999999999
127.0 0.20820820999999998
128.0 0.03903904
131.0 0.03103103
133.0 0.19219218999999998
135.0 0.10610611
137.0 0.05105105
140.0 0.03103103
143.0 0.05105105
145.0 0.32532533
147.0 0.13313313000000002
149.0 0.09009009000000001
151.0 0.02002002
153.0 0.06306306
155.0 0.02402402
157.0 0.08608608999999999
159.0 0.2042042
161.0 0.52952953
163.0 0.07107107
165.0 0.01601602
167.0 0.09009009000000001
169.0 0.03903904
171.0 0.11011011
173.0 0.07807808
175.0 0.06706706999999999
177.0 0.05905906
179.0 0.09409409
183.0 0.11011011
185.0 0.07107107
187.0 0.09009009000000001
189.0 0.07807808
190.0 0.02002002
195.0 0.06706706999999999
197.0 0.11411410999999999
199.0 0.09809810000000001
202.0 0.043043040000000005
203.0 0.02402402
206.0 0.02402402
209.0 0.055055059999999996
211.0 0.043043040000000005
213.0 0.03903904
215.0 0.043043040000000005
218.0 0.02402402
221.0 0.055055059999999996
223.0 0.06706706999999999
225.0 0.043043040000000005
227.0 0.03903904
231.0 0.02002002
232.0 0.02402402
234.0 0.03103103
236.0 0.03903904
238.0 0.03103103
240.0 0.05105105
243.0 0.02002002
245.0 0.02002002
247.0 0.02702703
249.0 0.08208208
251.0 0.07407407
253.0 0.03903904
255.0 0.02702703
260.0 0.04704705
261.0 0.03103103
263.0 0.02402402
265.0 0.03103103
267.0 0.03103103
269.0 0.043043040000000005
271.0 0.05105105
273.0 0.01601602
275.0 0.01601602
277.0 0.03103103
279.0 0.05105105
281.0 0.03903904
283.0 0.01601602
285.0 0.02402402
287.0 0.035035039999999996
290.0 0.02402402
294.0 0.02402402
296.0 0.02002002
297.0 0.04704705
299.0 0.01601602
301.0 0.03903904
303.0 0.02402402
304.0 0.02402402
306.0 0.01601602
311.0 0.01601602
314.0 0.035035039999999996
316.0 0.02702703
319.0 0.03103103
324.0 0.02702703
328.0 0.02002002
330.0 0.02002002
332.0 0.02002002
336.0 0.02402402
341.0 0.02002002
343.0 0.01601602
346.0 0.01601602
355.0 0.01201201
359.0 0.01201201
360.0 0.01601602
365.0 0.01201201
368.0 0.01601602
373.0 0.02002002
375.0 0.01201201
383.0 0.01201201
385.0 0.02402402
388.0 0.01201201
391.0 0.01201201
393.0 0.01201201
397.0 0.01201201
401.0 0.01601602
406.0 0.01201201
411.0 0.01201201
415.0 0.01201201
418.0 0.01601602
425.0 0.01601602
442.0 0.01201201
461.0 0.01201201
471.0 0.01601602
473.0 0.01201201
489.0 0.01201201
END IONS

BEGIN IONS
CHARGE=1+
INCHIKEY=VOZIAWLUULBIPN-LRBNAKOISA-N
INSTRUMENT_TYPE=LC-ESI-QQ
INSTRUMENT=QuattroPremier XE, Waters
COLLISION_ENERGY=30 V
FORMULA=C32H46O7
SMILES=C(C14O)([H])(O5)C(O)C(=CC1(C(OC(C2)([H])CC(CC=C(C)CC(C)C=CC=C4C5)(OC(O3)2CCC(C)C3CC)[H])=O)[H])C
CAS=51596-11-3
INCHI=InChI=1S/C32H46O7/c1-6-27-21(4)12-13-31(39-27)17-25-16-24(38-31)11-10-20(3)14-19(2)8-7-9-23-18-36-29-28(33)22(5)15-26(30(34)37-25)32(23,29)35/h7-10,15,19,21,24-29,33,35H,6,11-14,16-18H2,1-5H3/b8-7+,20-10+,23-9+/t19-,21-,24+,25-,26-,27+,28+,29+,31+,32+/m0/s1
AUTHOR=Nihon Waters K.K.
LICENSE=CC BY-NC
SPLASH=splash10-0a6r-0932100000-a732d4bffec688cd3108
SUBMITTER=submitter = Nihon Waters (Nihon Waters K.K.)
SYNON_$=00in-source
COMPUTED_SMILES=O=C1OC2CC(OC3(OC(CC)C(C)CC3)C2)CC=C(C)CC(C=CC=C4COC5C(O)C(=CC1C45O)C)C
COMPUTED_[2M+H-H2O]+=1067.641337624
COMPUTED_[2M+K]+=1123.7470076240002
COMPUTED_[M+H]+=543.332323812
COMPUTED_[2M+NA]+=1107.638477624
COMPUTED_[2M+CL]-=1120.101707624
COMPUTED_[2M+HAC-H]-=1143.692737624
COMPUTED_[M-H20-H]-=523.3059638120001
COMPUTED_[M-H]-=541.317077812
COMPUTED_[2M-H]-=1083.641431624
COMPUTED_[M+NA]+=565.314123812
COMPUTED_[M+H-H2O]+=525.316983812
COMPUTED_[2M+NH4]+=1102.687287624
COMPUTED_[M+CL]-=577.777353812
COMPUTED_[M+NH4]+=560.362933812
COMPUTED_[M+K]+=581.422653812
COMPUTED_[2M+H]+=1085.656677624
COMPUTED_[M+HAC-H]-=601.368383812
FIND_PEAK=ignore rel.int. < 5
COMPUTED_SPECTRAL_ENTROPY=4.592486868382553
COMPUTED_NORMALIZED_ENTROPY=0.8843683859216506
COMPUTED_MASS_ACCURACY=32.33164287080709
COMPUTED_MASS_ERROR=-0.01698381200003496
MONA_RATING=4.545454545454546
NUM_PEAKS=180
COMPOUND_NAME=Milbemycin A4
SPECTRUM_ID=WA000154
ADDUCT=[M-H2O+H]+
MS_LEVEL=MS2
PRECURSOR_MZ=525.3
IONMODE=positive
NOMINAL_MASS=542
PARENT_MASS=542.324353812
RECORD_DATE=2016.01.19 (Created 2007.08.01, modified 2012.10.22)
104.0 0.02002002
106.0 0.09409409
109.0 1.0
110.0 0.08208208
113.0 0.09009009000000001
121.0 0.11011011
122.0 0.055055059999999996
125.0 0.07407407
127.0 0.49049048999999995
128.0 0.05105105
133.0 0.05905906
135.0 0.08208208
137.0 0.05105105
140.0 0.02402402
143.0 0.02002002
145.0 0.14114114
147.0 0.14514515
149.0 0.07107107
151.0 0.03903904
153.0 0.12112112
157.0 0.07107107
159.0 0.11011011
161.0 0.3963964
163.0 0.09009009000000001
165.0 0.03903904
167.0 0.12912913
169.0 0.043043040000000005
171.0 0.06306306
173.0 0.055055059999999996
175.0 0.03903904
177.0 0.08208208
179.0 0.13313313000000002
183.0 0.02002002
185.0 0.043043040000000005
186.0 0.11011011
189.0 0.13313313000000002
192.0 0.043043040000000005
195.0 0.035035039999999996
197.0 0.20820820999999998
199.0 0.07807808
201.0 0.02402402
203.0 0.035035039999999996
207.0 0.05905906
209.0 0.02002002
211.0 0.06306306
213.0 0.02702703
216.0 0.02702703
221.0 0.02002002
223.0 0.02002002
225.0 0.11411410999999999
227.0 0.043043040000000005
235.0 0.07107107
237.0 0.02002002
239.0 0.05105105
243.0 0.03903904
247.0 0.02002002
249.0 0.02702703
252.0 0.06306306
255.0 0.02402402
259.0 0.035035039999999996
261.0 0.05105105
264.0 0.03903904
266.0 0.02002002
267.0 0.035035039999999996
269.0 0.07407407
271.0 0.02402402
273.0 0.03903904
275.0 0.02402402
277.0 0.03103103
279.0 0.05105105
282.0 0.04704705
285.0 0.03903904
287.0 0.035035039999999996
291.0 0.02002002
293.0 0.03103103
295.0 0.04704705
297.0 0.05905906
299.0 0.055055059999999996
301.0 0.02702703
303.0 0.04704705
305.0 0.02002002
306.0 0.06706706999999999
311.0 0.03103103
313.0 0.03903904
315.0 0.035035039999999996
317.0 0.04704705
319.0 0.03903904
320.0 0.02402402
322.0 0.02002002
323.0 0.06306306
327.0 0.043043040000000005
330.0 0.04704705
332.0 0.02402402
333.0 0.035035039999999996
335.0 0.02402402
337.0 0.043043040000000005
341.0 0.06706706999999999
343.0 0.043043040000000005
346.0 0.03103103
347.0 0.02702703
349.0 0.05105105
352.0 0.035035039999999996
357.0 0.03103103
359.0 0.03103103
361.0 0.03103103
363.0 0.043043040000000005
366.0 0.03103103
368.0 0.03103103
386.0 0.02702703
388.0 0.055055059999999996
397.0 0.02002002
402.0 0.05105105
405.0 0.02402402
418.0 0.02402402
420.0 0.02402402
427.0 0.035035039999999996
435.0 0.03103103
443.0 0.03903904
445.0 0.06706706999999999
453.0 0.043043040000000005
461.0 0.055055059999999996
463.0 0.04704705
471.0 0.09809810000000001
473.0 0.02402402
489.0 0.12112112
507.0 0.04704705
525.0 0.09409409
527.0 0.02402402
END IONS

BEGIN IONS
CHARGE=1+
INCHIKEY=VOZIAWLUULBIPN-LRBNAKOISA-N
INSTRUMENT_TYPE=LC-ESI-QQ
INSTRUMENT=QuattroPremier XE, Waters
COLLISION_ENERGY=20 V
FORMULA=C32H46O7
SMILES=C(C14O)([H])(O5)C(O)C(=CC1(C(OC(C2)([H])CC(CC=C(C)CC(C)C=CC=C4C5)(OC(O3)2CCC(C)C3CC)[H])=O)[H])C
CAS=51596-11-3
INCHI=InChI=1S/C32H46O7/c1-6-27-21(4)12-13-31(39-27)17-25-16-24(38-31)11-10-20(3)14-19(2)8-7-9-23-18-36-29-28(33)22(5)15-26(30(34)37-25)32(23,29)35/h7-10,15,19,21,24-29,33,35H,6,11-14,16-18H2,1-5H3/b8-7+,20-10+,23-9+/t19-,21-,24+,25-,26-,27+,28+,29+,31+,32+/m0/s1
AUTHOR=Nihon Waters K.K.
LICENSE=CC BY-NC
SPLASH=splash10-056r-0934550000-e790dd3f52576f8804b6
SUBMITTER=submitter = Nihon Waters (Nihon Waters K.K.)
SYNON_$=00in-source
COMPUTED_[M+H]+=543.332323812
COMPUTED_[2M+NA]+=1107.638477624
COMPUTED_SMILES=O=C1OC2CC(OC3(OC(CC)C(C)CC3)C2)CC=C(C)CC(C=CC=C4COC5C(O)C(=CC1C45O)C)C
COMPUTED_[2M+H-H2O]+=1067.641337624
COMPUTED_[2M+K]+=1123.7470076240002
COMPUTED_[2M+CL]-=1120.101707624
COMPUTED_[2M+HAC-H]-=1143.692737624
COMPUTED_[M-H20-H]-=523.3059638120001
COMPUTED_[M-H]-=541.317077812
COMPUTED_[2M-H]-=1083.641431624
COMPUTED_[M+NA]+=565.314123812
COMPUTED_[M+H-H2O]+=525.316983812
COMPUTED_[2M+NH4]+=1102.687287624
COMPUTED_[M+CL]-=577.777353812
COMPUTED_[M+NH4]+=560.362933812
COMPUTED_[M+K]+=581.422653812
COMPUTED_[2M+H]+=1085.656677624
COMPUTED_[M+HAC-H]-=601.368383812
FIND_PEAK=ignore rel.int. < 5
COMPUTED_SPECTRAL_ENTROPY=4.273012622956567
COMPUTED_NORMALIZED_ENTROPY=0.836870006700696
COMPUTED_MASS_ACCURACY=32.33164287080709
COMPUTED_MASS_ERROR=-0.01698381200003496
MONA_RATING=4.545454545454546
NUM_PEAKS=165
COMPOUND_NAME=Milbemycin A4
SPECTRUM_ID=WA000153
ADDUCT=[M-H2O+H]+
MS_LEVEL=MS2
PRECURSOR_MZ=525.3
IONMODE=positive
NOMINAL_MASS=542
PARENT_MASS=542.324353812
RECORD_DATE=2016.01.19 (Created 2007.08.01, modified 2012.10.22)
106.0 0.02702703
109.0 0.5015014999999999
113.0 0.04704705
121.0 0.05105105
124.0 0.03903904
127.0 0.7567567599999999
128.0 0.03103103
133.0 0.02402402
135.0 0.07407407
136.0 0.02702703
141.0 0.01601602
145.0 0.11811812
146.0 0.02702703
148.0 0.043043040000000005
153.0 0.05105105
157.0 0.02702703
159.0 0.09009009000000001
161.0 0.23123123
163.0 0.02702703
165.0 0.05105105
167.0 0.18818819
168.0 0.04704705
174.0 0.02702703
177.0 0.02402402
179.0 0.07107107
180.0 0.01601602
185.0 0.055055059999999996
187.0 0.05905906
189.0 0.035035039999999996
190.0 0.055055059999999996
193.0 0.03103103
195.0 0.02402402
197.0 0.25525526
199.0 0.08608608999999999
201.0 0.02702703
203.0 0.035035039999999996
207.0 0.02402402
209.0 0.02702703
213.0 0.02002002
215.0 0.03903904
225.0 0.02002002
227.0 0.02402402
236.0 0.03103103
242.0 0.02002002
247.0 0.02402402
249.0 0.02002002
251.0 0.04704705
253.0 0.13313313000000002
255.0 0.03103103
257.0 0.02702703
261.0 0.02002002
265.0 0.035035039999999996
267.0 0.05905906
269.0 0.05105105
273.0 0.01601602
277.0 0.02002002
279.0 0.02702703
282.0 0.02702703
285.0 0.035035039999999996
287.0 0.02702703
289.0 0.02702703
291.0 0.02702703
293.0 0.03903904
295.0 0.07807808
297.0 0.09809810000000001
299.0 0.03103103
303.0 0.02402402
305.0 0.04704705
311.0 0.03103103
312.0 0.08608608999999999
314.0 0.04704705
315.0 0.06706706999999999
317.0 0.055055059999999996
319.0 0.07807808
321.0 0.03103103
323.0 0.02002002
324.0 0.07107107
326.0 0.02002002
329.0 0.06306306
331.0 0.043043040000000005
335.0 0.03903904
337.0 0.04704705
339.0 0.01601602
342.0 0.043043040000000005
343.0 0.035035039999999996
346.0 0.03103103
347.0 0.02002002
349.0 0.02702703
355.0 0.055055059999999996
357.0 0.03903904
359.0 0.02002002
361.0 0.04704705
363.0 0.05105105
369.0 0.02702703
373.0 0.02002002
375.0 0.03103103
381.0 0.06306306
385.0 0.02402402
387.0 0.02002002
388.0 0.04704705
399.0 0.02702703
401.0 0.01601602
402.0 0.043043040000000005
405.0 0.04704705
413.0 0.02402402
419.0 0.01601602
425.0 0.02402402
427.0 0.035035039999999996
429.0 0.035035039999999996
435.0 0.03903904
442.0 0.02402402
444.0 0.12512513
445.0 0.12112112
453.0 0.07407407
455.0 0.02402402
461.0 0.07107107
463.0 0.10610611
471.0 0.36436436
473.0 0.03903904
475.0 0.02002002
481.0 0.09009009000000001
488.0 0.03903904
489.0 0.5015014999999999
491.0 0.02402402
507.0 0.16516517
508.0 0.56456456
525.0 1.0
527.0 0.26226226
END IONS

BEGIN IONS
CHARGE=1+
INCHIKEY=VOZIAWLUULBIPN-LRBNAKOISA-N
INSTRUMENT_TYPE=LC-ESI-QQ
INSTRUMENT=QuattroPremier XE, Waters
COLLISION_ENERGY=10 V
FORMULA=C32H46O7
SMILES=C(C14O)([H])(O5)C(O)C(=CC1(C(OC(C2)([H])CC(CC=C(C)CC(C)C=CC=C4C5)(OC(O3)2CCC(C)C3CC)[H])=O)[H])C
CAS=51596-11-3
INCHI=InChI=1S/C32H46O7/c1-6-27-21(4)12-13-31(39-27)17-25-16-24(38-31)11-10-20(3)14-19(2)8-7-9-23-18-36-29-28(33)22(5)15-26(30(34)37-25)32(23,29)35/h7-10,15,19,21,24-29,33,35H,6,11-14,16-18H2,1-5H3/b8-7+,20-10+,23-9+/t19-,21-,24+,25-,26-,27+,28+,29+,31+,32+/m0/s1
AUTHOR=Nihon Waters K.K.
LICENSE=CC BY-NC
SPLASH=splash10-004i-0000090000-c0b8883a56889eb1a3de
SUBMITTER=submitter = Nihon Waters (Nihon Waters K.K.)
SYNON_$=00in-source
COMPUTED_SMILES=O=C1OC2CC(OC3(OC(CC)C(C)CC3)C2)CC=C(C)CC(C=CC=C4COC5C(O)C(=CC1C45O)C)C
COMPUTED_[2M+H-H2O]+=1067.641337624
COMPUTED_[2M+K]+=1123.7470076240002
COMPUTED_[M+H]+=543.332323812
COMPUTED_[2M+NA]+=1107.638477624
COMPUTED_[2M+CL]-=1120.101707624
COMPUTED_[2M+HAC-H]-=1143.692737624
COMPUTED_[M-H20-H]-=523.3059638120001
COMPUTED_[M-H]-=541.317077812
COMPUTED_[2M-H]-=1083.641431624
COMPUTED_[M+NA]+=565.314123812
COMPUTED_[M+H-H2O]+=525.316983812
COMPUTED_[2M+NH4]+=1102.687287624
COMPUTED_[M+CL]-=577.777353812
COMPUTED_[M+NH4]+=560.362933812
COMPUTED_[M+K]+=581.422653812
COMPUTED_[2M+H]+=1085.656677624
COMPUTED_[M+HAC-H]-=601.368383812
FIND_PEAK=ignore rel.int. < 5
COMPUTED_SPECTRAL_ENTROPY=0.9746402245483761
COMPUTED_NORMALIZED_ENTROPY=0.40645654362167366
COMPUTED_MASS_ACCURACY=32.33164287080709
COMPUTED_MASS_ERROR=-0.01698381200003496
MONA_RATING=4.545454545454546
NUM_PEAKS=11
COMPOUND_NAME=Milbemycin A4
SPECTRUM_ID=WA000152
ADDUCT=[M-H2O+H]+
MS_LEVEL=MS2
PRECURSOR_MZ=525.3
IONMODE=positive
NOMINAL_MASS=542
PARENT_MASS=542.324353812
RECORD_DATE=2016.01.19 (Created 2007.08.01, modified 2012.10.22)
127.0 0.03103103
313.0 0.00800801
355.0 0.00800801
463.0 0.00800801
471.0 0.01601602
489.0 0.02002002
490.0 0.01201201
507.0 0.07407407
508.0 0.01201201
525.0 1.0
526.0 0.12112112
END IONS

BEGIN IONS
CHARGE=1+
INCHIKEY=ZLBGSRMUSVULIE-GSMJGMFJSA-N
INSTRUMENT_TYPE=LC-ESI-QQ
INSTRUMENT=QuattroPremier XE, Waters
COLLISION_ENERGY=30 V
FORMULA=C31H44O7
SMILES=C(C(O)43)(C5)=CC=CC(C)CC(=CCC(C2)(OC(C1)(CC2(OC(=O)C(C=C(C(O)C4(O5)[H])C)3[H])[H])OC(C)C(C1)C)[H])C
CAS=51596-10-2
INCHI=InChI=1S/C31H44O7/c1-18-7-6-8-23-17-35-28-27(32)21(4)14-26(31(23,28)34)29(33)36-25-15-24(10-9-19(2)13-18)38-30(16-25)12-11-20(3)22(5)37-30/h6-9,14,18,20,22,24-28,32,34H,10-13,15-17H2,1-5H3/b7-6+,19-9+,23-8+/t18-,20-,22+,24+,25-,26-,27+,28+,30-,31+/m0/s1
AUTHOR=Nihon Waters K.K.
LICENSE=CC BY-NC
SPLASH=splash10-03di-0932100000-829596d4e9585c6e4f3e
SUBMITTER=submitter = Nihon Waters (Nihon Waters K.K.)
SYNON_$=00in-source
COMPUTED_SMILES=O=C1OC2CC(OC3(OC(C)C(C)CC3)C2)CC=C(C)CC(C=CC=C4COC5C(O)C(=CC1C45O)C)C
COMPUTED_[2M+H-H2O]+=1039.610037496
COMPUTED_[2M+K]+=1095.715707496
COMPUTED_[M+H]+=529.316673748
COMPUTED_[2M+NA]+=1079.6071774959998
COMPUTED_[2M+CL]-=1092.070407496
COMPUTED_[2M+HAC-H]-=1115.661437496
COMPUTED_[M-H20-H]-=509.29031374799996
COMPUTED_[M-H]-=527.3014277479999
COMPUTED_[2M-H]-=1055.610131496
COMPUTED_[M+NA]+=551.298473748
COMPUTED_[M+H-H2O]+=511.301333748
COMPUTED_[2M+NH4]+=1074.6559874959999
COMPUTED_[M+CL]-=563.761703748
COMPUTED_[M+NH4]+=546.347283748
COMPUTED_[M+K]+=567.407003748
COMPUTED_[2M+H]+=1057.6253774959998
COMPUTED_[M+HAC-H]-=587.352733748
FIND_PEAK=ignore rel.int. < 5
COMPUTED_SPECTRAL_ENTROPY=4.566372720280683
COMPUTED_NORMALIZED_ENTROPY=0.8901487093686526
COMPUTED_MASS_ACCURACY=2.6085429297459335
COMPUTED_MASS_ERROR=-0.0013337479999790958
MONA_RATING=4.583333333333334
NUM_PEAKS=169
COMPOUND_NAME=Milbemycin A3
SPECTRUM_ID=WA000151
ADDUCT=[M-H2O+H]+
MS_LEVEL=MS2
PRECURSOR_MZ=511.3
IONMODE=positive
NOMINAL_MASS=528
PARENT_MASS=528.308703748
RECORD_DATE=2016.01.19 (Created 2007.08.01, modified 2012.10.22)
105.0 0.07407407
107.0 0.15315315
109.0 0.09409409
111.0 0.04704705
113.0 1.0
114.0 0.02002002
119.0 0.06306306
121.0 0.18018018000000002
123.0 0.055055059999999996
125.0 0.03103103
131.0 0.02402402
133.0 0.10610611
135.0 0.1021021
137.0 0.035035039999999996
139.0 0.11411410999999999
143.0 0.02402402
145.0 0.24324324
147.0 0.4044044
149.0 0.06706706999999999
151.0 0.02002002
153.0 0.21521522
157.0 0.05905906
159.0 0.18818819
161.0 0.30230229999999997
163.0 0.07807808
165.0 0.23123123
169.0 0.03103103
171.0 0.07407407
173.0 0.07107107
175.0 0.05105105
177.0 0.07107107
179.0 0.03903904
181.0 0.03903904
183.0 0.25125125
185.0 0.08608608999999999
187.0 0.09009009000000001
189.0 0.19619620000000002
191.0 0.03103103
195.0 0.055055059999999996
197.0 0.10610611
199.0 0.07407407
201.0 0.03103103
203.0 0.035035039999999996
207.0 0.03903904
209.0 0.04704705
211.0 0.06306306
213.0 0.055055059999999996
215.0 0.04704705
223.0 0.043043040000000005
225.0 0.05105105
227.0 0.04704705
229.0 0.02002002
235.0 0.02702703
237.0 0.03103103
239.0 0.04704705
241.0 0.03103103
249.0 0.035035039999999996
251.0 0.07107107
253.0 0.06706706999999999
255.0 0.035035039999999996
257.0 0.02402402
261.0 0.055055059999999996
263.0 0.035035039999999996
265.0 0.043043040000000005
267.0 0.05105105
269.0 0.055055059999999996
271.0 0.035035039999999996
273.0 0.043043040000000005
275.0 0.03103103
277.0 0.07107107
279.0 0.05905906
281.0 0.055055059999999996
283.0 0.05905906
285.0 0.03103103
289.0 0.035035039999999996
291.0 0.035035039999999996
293.0 0.02702703
295.0 0.055055059999999996
297.0 0.07807808
299.0 0.05905906
301.0 0.03103103
303.0 0.04704705
305.0 0.055055059999999996
307.0 0.02402402
309.0 0.02402402
311.0 0.02402402
313.0 0.043043040000000005
315.0 0.035035039999999996
317.0 0.043043040000000005
319.0 0.043043040000000005
321.0 0.03103103
323.0 0.11011011
325.0 0.02402402
327.0 0.02402402
329.0 0.035035039999999996
331.0 0.035035039999999996
335.0 0.02402402
341.0 0.06306306
343.0 0.043043040000000005
345.0 0.04704705
347.0 0.02702703
349.0 0.03903904
355.0 0.02002002
357.0 0.02702703
359.0 0.035035039999999996
363.0 0.05105105
365.0 0.02402402
367.0 0.02702703
369.0 0.02702703
373.0 0.02402402
375.0 0.02402402
381.0 0.02402402
383.0 0.02702703
387.0 0.035035039999999996
401.0 0.03103103
403.0 0.03103103
411.0 0.02002002
413.0 0.02002002
421.0 0.02702703
429.0 0.05105105
431.0 0.05105105
439.0 0.04704705
447.0 0.03903904
449.0 0.043043040000000005
457.0 0.12112112
475.0 0.09809810000000001
493.0 0.05105105
511.0 0.055055059999999996
END IONS

BEGIN IONS
CHARGE=1+
INCHIKEY=ZLBGSRMUSVULIE-GSMJGMFJSA-N
INSTRUMENT_TYPE=LC-ESI-QQ
INSTRUMENT=QuattroPremier XE, Waters
COLLISION_ENERGY=20 V
FORMULA=C31H44O7
SMILES=C(C(O)43)(C5)=CC=CC(C)CC(=CCC(C2)(OC(C1)(CC2(OC(=O)C(C=C(C(O)C4(O5)[H])C)3[H])[H])OC(C)C(C1)C)[H])C
CAS=51596-10-2
INCHI=InChI=1S/C31H44O7/c1-18-7-6-8-23-17-35-28-27(32)21(4)14-26(31(23,28)34)29(33)36-25-15-24(10-9-19(2)13-18)38-30(16-25)12-11-20(3)22(5)37-30/h6-9,14,18,20,22,24-28,32,34H,10-13,15-17H2,1-5H3/b7-6+,19-9+,23-8+/t18-,20-,22+,24+,25-,26-,27+,28+,30-,31+/m0/s1
AUTHOR=Nihon Waters K.K.
LICENSE=CC BY-NC
SPLASH=splash10-03di-0934630000-2bfdb2438ddbe65c7097
SUBMITTER=submitter = Nihon Waters (Nihon Waters K.K.)
SYNON_$=00in-source
COMPUTED_SMILES=O=C1OC2CC(OC3(OC(C)C(C)CC3)C2)CC=C(C)CC(C=CC=C4COC5C(O)C(=CC1C45O)C)C
COMPUTED_[2M+H-H2O]+=1039.610037496
COMPUTED_[2M+K]+=1095.715707496
COMPUTED_[M+H]+=529.316673748
COMPUTED_[2M+NA]+=1079.6071774959998
COMPUTED_[2M+CL]-=1092.070407496
COMPUTED_[2M+HAC-H]-=1115.661437496
COMPUTED_[M-H20-H]-=509.29031374799996
COMPUTED_[M-H]-=527.3014277479999
COMPUTED_[2M-H]-=1055.610131496
COMPUTED_[M+NA]+=551.298473748
COMPUTED_[M+H-H2O]+=511.301333748
COMPUTED_[2M+NH4]+=1074.6559874959999
COMPUTED_[M+CL]-=563.761703748
COMPUTED_[M+NH4]+=546.347283748
COMPUTED_[M+K]+=567.407003748
COMPUTED_[2M+H]+=1057.6253774959998
COMPUTED_[M+HAC-H]-=587.352733748
FIND_PEAK=ignore rel.int. < 5
COMPUTED_SPECTRAL_ENTROPY=4.134850124992425
COMPUTED_NORMALIZED_ENTROPY=0.8098108658088926
COMPUTED_MASS_ACCURACY=2.6085429297459335
COMPUTED_MASS_ERROR=-0.0013337479999790958
MONA_RATING=4.583333333333334
NUM_PEAKS=165
COMPOUND_NAME=Milbemycin A3
SPECTRUM_ID=WA000150
ADDUCT=[M-H2O+H]+
MS_LEVEL=MS2
PRECURSOR_MZ=511.3
IONMODE=positive
NOMINAL_MASS=528
PARENT_MASS=528.308703748
RECORD_DATE=2016.01.19 (Created 2007.08.01, modified 2012.10.22)
104.0 0.01201201
107.0 0.03103103
109.0 0.03103103
110.0 0.01201201
113.0 1.0
114.0 0.01601602
119.0 0.01601602
121.0 0.05905906
123.0 0.01601602
133.0 0.02702703
135.0 0.03103103
137.0 0.01601602
139.0 0.06306306
145.0 0.07107107
147.0 0.15715716000000002
149.0 0.02402402
153.0 0.16116116000000003
157.0 0.01601602
159.0 0.07407407
161.0 0.09009009000000001
163.0 0.03903904
165.0 0.14514515
171.0 0.01601602
173.0 0.03103103
175.0 0.02002002
177.0 0.043043040000000005
179.0 0.02002002
181.0 0.02702703
183.0 0.32132131999999997
185.0 0.05105105
187.0 0.03903904
189.0 0.07107107
195.0 0.01201201
197.0 0.03903904
199.0 0.02402402
203.0 0.02002002
207.0 0.02702703
209.0 0.01601602
211.0 0.02002002
213.0 0.01601602
215.0 0.01601602
217.0 0.01201201
223.0 0.01601602
225.0 0.02002002
227.0 0.01601602
239.0 0.01601602
243.0 0.01201201
251.0 0.05905906
253.0 0.055055059999999996
255.0 0.01601602
261.0 0.02402402
265.0 0.02402402
267.0 0.02702703
269.0 0.02402402
271.0 0.02402402
273.0 0.02002002
277.0 0.02002002
279.0 0.04704705
281.0 0.04704705
283.0 0.08608608999999999
285.0 0.02402402
289.0 0.01601602
291.0 0.035035039999999996
293.0 0.02002002
295.0 0.043043040000000005
297.0 0.06306306
299.0 0.07807808
301.0 0.01601602
303.0 0.02002002
305.0 0.043043040000000005
309.0 0.01601602
311.0 0.02402402
313.0 0.02702703
315.0 0.043043040000000005
317.0 0.055055059999999996
319.0 0.07107107
321.0 0.02402402
323.0 0.10610611
326.0 0.01601602
329.0 0.02402402
331.0 0.02002002
335.0 0.02402402
337.0 0.01601602
341.0 0.11411410999999999
343.0 0.02702703
345.0 0.03903904
347.0 0.02702703
349.0 0.02402402
357.0 0.02002002
359.0 0.043043040000000005
361.0 0.02402402
363.0 0.08608608999999999
364.0 0.01601602
367.0 0.03103103
369.0 0.01601602
373.0 0.02002002
375.0 0.01601602
381.0 0.10610611
383.0 0.02002002
385.0 0.02002002
387.0 0.03903904
389.0 0.01201201
399.0 0.01601602
401.0 0.02702703
403.0 0.02702703
405.0 0.02002002
411.0 0.02002002
413.0 0.05105105
415.0 0.01201201
419.0 0.01601602
421.0 0.035035039999999996
429.0 0.09409409
431.0 0.12512513
433.0 0.02002002
439.0 0.13313313000000002
440.0 0.01201201
447.0 0.06706706999999999
449.0 0.11811812
451.0 0.01201201
457.0 0.32532533
459.0 0.02702703
466.0 0.01601602
467.0 0.06706706999999999
475.0 0.4044044
477.0 0.02702703
493.0 0.5175175200000001
495.0 0.035035039999999996
511.0 0.97297297
END IONS

BEGIN IONS
CHARGE=1+
INCHIKEY=ZLBGSRMUSVULIE-GSMJGMFJSA-N
INSTRUMENT_TYPE=LC-ESI-QQ
INSTRUMENT=QuattroPremier XE, Waters
COLLISION_ENERGY=10 V
FORMULA=C31H44O7
SMILES=C(C(O)43)(C5)=CC=CC(C)CC(=CCC(C2)(OC(C1)(CC2(OC(=O)C(C=C(C(O)C4(O5)[H])C)3[H])[H])OC(C)C(C1)C)[H])C
CAS=51596-10-2
INCHI=InChI=1S/C31H44O7/c1-18-7-6-8-23-17-35-28-27(32)21(4)14-26(31(23,28)34)29(33)36-25-15-24(10-9-19(2)13-18)38-30(16-25)12-11-20(3)22(5)37-30/h6-9,14,18,20,22,24-28,32,34H,10-13,15-17H2,1-5H3/b7-6+,19-9+,23-8+/t18-,20-,22+,24+,25-,26-,27+,28+,30-,31+/m0/s1
AUTHOR=Nihon Waters K.K.
LICENSE=CC BY-NC
SPLASH=splash10-03di-0000290000-4ae4323fe4a80c9fdf79
SUBMITTER=submitter = Nihon Waters (Nihon Waters K.K.)
SYNON_$=00in-source
COMPUTED_SMILES=O=C1OC2CC(OC3(OC(C)C(C)CC3)C2)CC=C(C)CC(C=CC=C4COC5C(O)C(=CC1C45O)C)C
COMPUTED_[2M+H-H2O]+=1039.610037496
COMPUTED_[2M+K]+=1095.715707496
COMPUTED_[M+H]+=529.316673748
COMPUTED_[2M+NA]+=1079.6071774959998
COMPUTED_[2M+CL]-=1092.070407496
COMPUTED_[2M+HAC-H]-=1115.661437496
COMPUTED_[M-H20-H]-=509.29031374799996
COMPUTED_[M-H]-=527.3014277479999
COMPUTED_[2M-H]-=1055.610131496
COMPUTED_[M+NA]+=551.298473748
COMPUTED_[M+H-H2O]+=511.301333748
COMPUTED_[2M+NH4]+=1074.6559874959999
COMPUTED_[M+CL]-=563.761703748
COMPUTED_[M+NH4]+=546.347283748
COMPUTED_[M+K]+=567.407003748
COMPUTED_[2M+H]+=1057.6253774959998
COMPUTED_[M+HAC-H]-=587.352733748
FIND_PEAK=ignore rel.int. < 5
COMPUTED_SPECTRAL_ENTROPY=1.3057779264314289
COMPUTED_NORMALIZED_ENTROPY=0.47095983474122405
COMPUTED_MASS_ACCURACY=2.6085429297459335
COMPUTED_MASS_ERROR=-0.0013337479999790958
MONA_RATING=4.583333333333334
NUM_PEAKS=16
COMPOUND_NAME=Milbemycin A3
SPECTRUM_ID=WA000149
ADDUCT=[M-H2O+H]+
MS_LEVEL=MS2
PRECURSOR_MZ=511.3
IONMODE=positive
NOMINAL_MASS=528
PARENT_MASS=528.308703748
RECORD_DATE=2016.01.19 (Created 2007.08.01, modified 2012.10.22)
113.0 0.03903904
153.0 0.00800801
183.0 0.01601602
341.0 0.02002002
363.0 0.00800801
381.0 0.01201201
431.0 0.00800801
449.0 0.01201201
457.0 0.03103103
467.0 0.00800801
475.0 0.07107107
476.0 0.00800801
493.0 0.13313313000000002
495.0 0.00800801
511.0 1.0
513.0 0.06706706999999999
END IONS

BEGIN IONS
CHARGE=1+
INCHIKEY=HAWJXYBZNNRMNO-UHFFFAOYSA-N
INSTRUMENT_TYPE=LC-ESI-QQ
INSTRUMENT=QuattroPremier XE, Waters
COLLISION_ENERGY=40 V
FORMULA=C18H26N2O5S
CAS=65907-30-4
SMILES=CCCCOC(=O)N(C)SN(C)C(=O)Oc(c2)c(O1)c(cc2)CC(C)(C)1
INCHI=InChI=1S/C18H26N2O5S/c1-6-7-11-23-16(21)19(4)26-20(5)17(22)24-14-10-8-9-13-12-18(2,3)25-15(13)14/h8-10H,6-7,11-12H2,1-5H3
AUTHOR=Nihon Waters K.K.
LICENSE=CC BY-NC
SPLASH=splash10-03fs-1900000000-61ee7c7e263b551bd71d
SUBMITTER=submitter = Nihon Waters (Nihon Waters K.K.)
SYNON_$=00in-source
COMPUTED_SMILES=O=C(OC1=CC=CC2=C1OC(C)(C)C2)N(SN(C(=O)OCCCC)C)C
COMPUTED_[2M+H-H2O]+=747.3051158640001
COMPUTED_[2M+K]+=803.4107858640001
COMPUTED_[M+H]+=383.16421293200005
COMPUTED_[2M+NA]+=787.3022558640001
COMPUTED_[2M+CL]-=799.7654858640001
COMPUTED_[2M+HAC-H]-=823.3565158640001
COMPUTED_[M-H20-H]-=363.13785293200004
COMPUTED_[M-H]-=381.14896693200006
COMPUTED_[2M-H]-=763.3052098640001
COMPUTED_[M+NA]+=405.1460129320001
COMPUTED_[M+H-H2O]+=365.1488729320001
COMPUTED_[2M+NH4]+=782.3510658640001
COMPUTED_[M+CL]-=417.60924293200003
COMPUTED_[M+NH4]+=400.1948229320001
COMPUTED_[M+K]+=421.25454293200005
COMPUTED_[2M+H]+=765.3204558640001
COMPUTED_[M+HAC-H]-=441.2002729320001
FIND_PEAK=ignore rel.int. < 5
COMPUTED_SPECTRAL_ENTROPY=3.3636020192752514
COMPUTED_NORMALIZED_ENTROPY=0.8215239260297484
COMPUTED_MASS_ACCURACY=197.75354347133432
COMPUTED_MASS_ERROR=0.07578706799995416
MONA_RATING=4.545454545454546
NUM_PEAKS=60
COMPOUND_NAME=Furathiocarb
SPECTRUM_ID=WA000144
ADDUCT=[M+H]+
MS_LEVEL=MS2
PRECURSOR_MZ=383.24
IONMODE=positive
NOMINAL_MASS=382
PARENT_MASS=382.15624293200005
RECORD_DATE=2016.01.19 (Created 2007.08.01, modified 2011.05.06)
52.0 0.01201201
55.0 0.09809810000000001
57.0 0.20820820999999998
58.0 0.05905906
62.0 0.11411410999999999
64.0 0.02002002
67.0 0.02002002
69.0 0.00800801
70.0 0.01201201
72.0 0.01201201
76.0 0.06706706999999999
77.0 0.00800801
79.0 0.06706706999999999
81.0 0.02002002
84.0 0.13713714
86.0 0.05105105
90.0 0.18818819
91.0 0.02002002
93.0 0.04704705
94.0 0.04704705
96.0 0.28628629
98.0 0.01201201
102.0 0.04704705
105.0 0.2982983
107.0 0.12912913
108.0 0.21221221
110.0 0.07107107
112.0 0.00800801
114.0 0.06306306
116.0 0.21221221
117.0 0.08208208
119.0 0.01201201
120.0 0.043043040000000005
122.0 0.33333333000000004
125.0 0.90990991
126.0 0.03103103
131.0 0.14514515
133.0 0.21921922
134.0 0.14914915
136.0 0.03903904
139.0 0.1021021
140.0 0.00800801
142.0 0.01601602
143.0 0.30930931
145.0 0.05105105
146.0 0.23923924
149.0 0.6976977
151.0 0.035035039999999996
153.0 0.16516517
154.0 0.00800801
160.0 0.043043040000000005
162.0 1.0
164.0 0.7257257300000001
167.0 0.7997998
168.0 0.02702703
177.0 0.25525526
178.0 0.00800801
180.0 0.02002002
195.0 0.33733734
196.0 0.01201201
END IONS

BEGIN IONS
CHARGE=1+
INCHIKEY=HAWJXYBZNNRMNO-UHFFFAOYSA-N
INSTRUMENT_TYPE=LC-ESI-QQ
INSTRUMENT=QuattroPremier XE, Waters
COLLISION_ENERGY=30 V
FORMULA=C18H26N2O5S
SMILES=CCCCOC(=O)N(C)SN(C)C(=O)Oc(c2)c(O1)c(cc2)CC(C)(C)1
CAS=65907-30-4
INCHI=InChI=1S/C18H26N2O5S/c1-6-7-11-23-16(21)19(4)26-20(5)17(22)24-14-10-8-9-13-12-18(2,3)25-15(13)14/h8-10H,6-7,11-12H2,1-5H3
AUTHOR=Nihon Waters K.K.
LICENSE=CC BY-NC
SPLASH=splash10-0292-1900000000-a3e0592adcb579b97e38
SUBMITTER=submitter = Nihon Waters (Nihon Waters K.K.)
SYNON_$=00in-source
COMPUTED_SMILES=O=C(OC1=CC=CC2=C1OC(C)(C)C2)N(SN(C(=O)OCCCC)C)C
COMPUTED_[2M+H-H2O]+=747.3051158639998
COMPUTED_[2M+K]+=803.4107858639999
COMPUTED_[M+H]+=383.16421293199994
COMPUTED_[2M+NA]+=787.3022558639999
COMPUTED_[2M+CL]-=799.7654858639999
COMPUTED_[2M+HAC-H]-=823.3565158639999
COMPUTED_[M-H20-H]-=363.13785293199993
COMPUTED_[M-H]-=381.14896693199995
COMPUTED_[2M-H]-=763.3052098639998
COMPUTED_[M+NA]+=405.14601293199996
COMPUTED_[M+H-H2O]+=365.14887293199996
COMPUTED_[2M+NH4]+=782.3510658639999
COMPUTED_[M+CL]-=417.6092429319999
COMPUTED_[M+NH4]+=400.19482293199997
COMPUTED_[M+K]+=421.25454293199994
COMPUTED_[2M+H]+=765.3204558639999
COMPUTED_[M+HAC-H]-=441.20027293199996
FIND_PEAK=ignore rel.int. < 5
COMPUTED_SPECTRAL_ENTROPY=2.710061822376607
COMPUTED_NORMALIZED_ENTROPY=0.7161538095464125
COMPUTED_MASS_ACCURACY=197.75354347163096
COMPUTED_MASS_ERROR=0.07578706800006785
MONA_RATING=4.545454545454546
NUM_PEAKS=44
COMPOUND_NAME=Furathiocarb
SPECTRUM_ID=WA000143
ADDUCT=[M+H]+
MS_LEVEL=MS2
PRECURSOR_MZ=383.24
IONMODE=positive
NOMINAL_MASS=382
PARENT_MASS=382.15624293199994
RECORD_DATE=2016.01.19 (Created 2007.08.01, modified 2011.05.06)
54.0 0.03103103
57.0 0.12112112
58.0 0.01201201
61.0 0.06706706999999999
64.0 0.00800801
76.0 0.043043040000000005
79.0 0.00800801
84.0 0.035035039999999996
86.0 0.055055059999999996
90.0 0.08208208
91.0 0.01201201
92.0 0.01201201
94.0 0.01201201
96.0 0.01601602
105.0 0.06306306
107.0 0.05905906
108.0 0.01601602
111.0 0.01601602
115.0 0.02702703
117.0 0.02002002
121.0 0.01201201
122.0 0.043043040000000005
124.0 0.15315315
131.0 0.01201201
133.0 0.05905906
135.0 0.09009009000000001
136.0 0.00800801
139.0 0.02702703
143.0 0.043043040000000005
146.0 0.03103103
147.0 0.00800801
149.0 0.13713714
150.0 0.00800801
153.0 0.05105105
160.0 0.02002002
162.0 0.42742743
164.0 0.57657658
167.0 0.9019019
168.0 0.02402402
177.0 0.34134134000000005
178.0 0.01201201
180.0 0.00800801
195.0 1.0
196.0 0.03103103
END IONS

BEGIN IONS
CHARGE=1+
INCHIKEY=HAWJXYBZNNRMNO-UHFFFAOYSA-N
INSTRUMENT_TYPE=LC-ESI-QQ
INSTRUMENT=QuattroPremier XE, Waters
COLLISION_ENERGY=20 V
FORMULA=C18H26N2O5S
CAS=65907-30-4
SMILES=CCCCOC(=O)N(C)SN(C)C(=O)Oc(c2)c(O1)c(cc2)CC(C)(C)1
INCHI=InChI=1S/C18H26N2O5S/c1-6-7-11-23-16(21)19(4)26-20(5)17(22)24-14-10-8-9-13-12-18(2,3)25-15(13)14/h8-10H,6-7,11-12H2,1-5H3
AUTHOR=Nihon Waters K.K.
LICENSE=CC BY-NC
SPLASH=splash10-0002-0900000000-1b5d04c789b7ab736cb8
SUBMITTER=submitter = Nihon Waters (Nihon Waters K.K.)
SYNON_$=00in-source
COMPUTED_SMILES=O=C(OC1=CC=CC2=C1OC(C)(C)C2)N(SN(C(=O)OCCCC)C)C
COMPUTED_[2M+H-H2O]+=747.305115864
COMPUTED_[2M+K]+=803.410785864
COMPUTED_[M+H]+=383.164212932
COMPUTED_[2M+NA]+=787.302255864
COMPUTED_[2M+CL]-=799.765485864
COMPUTED_[2M+HAC-H]-=823.356515864
COMPUTED_[M-H20-H]-=363.137852932
COMPUTED_[M-H]-=381.148966932
COMPUTED_[2M-H]-=763.305209864
COMPUTED_[M+NA]+=405.146012932
COMPUTED_[M+H-H2O]+=365.148872932
COMPUTED_[2M+NH4]+=782.351065864
COMPUTED_[M+CL]-=417.60924293200003
COMPUTED_[M+NH4]+=400.194822932
COMPUTED_[M+K]+=421.254542932
COMPUTED_[2M+H]+=765.320455864
COMPUTED_[M+HAC-H]-=441.200272932
FIND_PEAK=ignore rel.int. < 5
COMPUTED_SPECTRAL_ENTROPY=2.0172935454556193
COMPUTED_NORMALIZED_ENTROPY=0.6625976936350234
COMPUTED_MASS_ACCURACY=197.75354347148263
COMPUTED_MASS_ERROR=0.075787068000011
MONA_RATING=4.545454545454546
NUM_PEAKS=21
COMPOUND_NAME=Furathiocarb
SPECTRUM_ID=WA000142
ADDUCT=[M+H]+
MS_LEVEL=MS2
PRECURSOR_MZ=383.24
IONMODE=positive
NOMINAL_MASS=382
PARENT_MASS=382.156242932
RECORD_DATE=2016.01.19 (Created 2007.08.01, modified 2011.05.06)
55.0 0.00800801
57.0 0.02002002
62.0 0.02702703
75.0 0.02402402
84.0 0.00800801
87.0 0.055055059999999996
89.0 0.04704705
104.0 0.07107107
106.0 0.00800801
132.0 0.01201201
135.0 0.043043040000000005
149.0 0.01601602
161.0 0.1021021
164.0 0.25125125
167.0 0.31331331
168.0 0.00800801
177.0 0.07107107
195.0 1.0
196.0 0.03103103
252.0 0.13713714
253.0 0.00800801
END IONS

BEGIN IONS
CHARGE=1+
INCHIKEY=HAWJXYBZNNRMNO-UHFFFAOYSA-N
INSTRUMENT_TYPE=LC-ESI-QQ
INSTRUMENT=QuattroPremier XE, Waters
COLLISION_ENERGY=10 V
FORMULA=C18H26N2O5S
SMILES=CCCCOC(=O)N(C)SN(C)C(=O)Oc(c2)c(O1)c(cc2)CC(C)(C)1
CAS=65907-30-4
INCHI=InChI=1S/C18H26N2O5S/c1-6-7-11-23-16(21)19(4)26-20(5)17(22)24-14-10-8-9-13-12-18(2,3)25-15(13)14/h8-10H,6-7,11-12H2,1-5H3
AUTHOR=Nihon Waters K.K.
LICENSE=CC BY-NC
SPLASH=splash10-0f89-0349000000-908b7117536baaf7c7c8
SUBMITTER=submitter = Nihon Waters (Nihon Waters K.K.)
SYNON_$=00in-source
COMPUTED_SMILES=O=C(OC1=CC=CC2=C1OC(C)(C)C2)N(SN(C(=O)OCCCC)C)C
COMPUTED_[2M+H-H2O]+=747.3051158640001
COMPUTED_[2M+K]+=803.4107858640001
COMPUTED_[M+H]+=383.16421293200005
COMPUTED_[2M+NA]+=787.3022558640001
COMPUTED_[2M+CL]-=799.7654858640001
COMPUTED_[2M+HAC-H]-=823.3565158640001
COMPUTED_[M-H20-H]-=363.13785293200004
COMPUTED_[M-H]-=381.14896693200006
COMPUTED_[2M-H]-=763.3052098640001
COMPUTED_[M+NA]+=405.1460129320001
COMPUTED_[M+H-H2O]+=365.1488729320001
COMPUTED_[2M+NH4]+=782.3510658640001
COMPUTED_[M+CL]-=417.60924293200003
COMPUTED_[M+NH4]+=400.1948229320001
COMPUTED_[M+K]+=421.25454293200005
COMPUTED_[2M+H]+=765.3204558640001
COMPUTED_[M+HAC-H]-=441.2002729320001
FIND_PEAK=ignore rel.int. < 5
COMPUTED_SPECTRAL_ENTROPY=1.7391106240845688
COMPUTED_NORMALIZED_ENTROPY=0.6138297448489152
COMPUTED_MASS_ACCURACY=197.75354347133432
COMPUTED_MASS_ERROR=0.07578706799995416
MONA_RATING=4.545454545454546
NUM_PEAKS=17
COMPOUND_NAME=Furathiocarb
SPECTRUM_ID=WA000141
ADDUCT=[M+H]+
MS_LEVEL=MS2
PRECURSOR_MZ=383.24
IONMODE=positive
NOMINAL_MASS=382
PARENT_MASS=382.15624293200005
RECORD_DATE=2016.01.19 (Created 2007.08.01, modified 2011.05.06)
105.0 0.02402402
162.0 0.055055059999999996
164.0 0.03103103
167.0 0.02402402
177.0 0.01201201
195.0 0.31331331
196.0 0.00800801
219.0 0.04704705
220.0 0.00800801
252.0 0.52552553
253.0 0.01601602
270.0 0.01201201
283.0 0.01201201
326.0 0.14114114
327.0 0.00800801
383.0 1.0
384.0 0.06306306
END IONS

BEGIN IONS
CHARGE=1+
INCHIKEY=IDOWTHOLJBTAFI-UHFFFAOYSA-N
INSTRUMENT_TYPE=LC-ESI-QQ
INSTRUMENT=QuattroPremier XE, Waters
COLLISION_ENERGY=40 V
FORMULA=C16H16N2O4
SMILES=COC(=O)Nc(c2)cc(cc2)OC(=O)Nc(c1)cc(C)cc1
CAS=13684-63-4
INCHI=InChI=1S/C16H16N2O4/c1-11-5-3-6-12(9-11)18-16(20)22-14-8-4-7-13(10-14)17-15(19)21-2/h3-10H,1-2H3,(H,17,19)(H,18,20)
AUTHOR=Nihon Waters K.K.
LICENSE=CC BY-NC
SPLASH=splash10-052o-6900000000-7128e6f240750d92f9a4
SUBMITTER=submitter = Nihon Waters (Nihon Waters K.K.)
SYNON_$=00in-source
COMPUTED_SMILES=OC(=NC1=CC=CC(=C1)C)OC=2C=CC=C(N=C(O)OC)C2
COMPUTED_[2M+H-H2O]+=583.214643984
COMPUTED_[2M+K]+=639.320313984
COMPUTED_[M+H]+=301.118976992
COMPUTED_[2M+NA]+=623.211783984
COMPUTED_[2M+CL]-=635.675013984
COMPUTED_[2M+HAC-H]-=659.266043984
COMPUTED_[M-H20-H]-=281.092616992
COMPUTED_[M-H]-=299.103730992
COMPUTED_[2M-H]-=599.214737984
COMPUTED_[M+NA]+=323.100776992
COMPUTED_[M+H-H2O]+=283.103636992
COMPUTED_[2M+NH4]+=618.260593984
COMPUTED_[M+CL]-=335.56400699200003
COMPUTED_[M+NH4]+=318.149586992
COMPUTED_[M+K]+=339.209306992
COMPUTED_[2M+H]+=601.229983984
COMPUTED_[M+HAC-H]-=359.155036992
FIND_PEAK=ignore rel.int. < 5
COMPUTED_SPECTRAL_ENTROPY=1.5289483530672772
COMPUTED_NORMALIZED_ENTROPY=0.6376209880438095
COMPUTED_MASS_ACCURACY=53680.14773098677
COMPUTED_MASS_ERROR=17.08102300799999
MONA_RATING=4.166666666666666
NUM_PEAKS=11
COMPOUND_NAME=Phenmedipham
SPECTRUM_ID=WA000136
ADDUCT=[M+NH4]+
MS_LEVEL=MS2
PRECURSOR_MZ=318.2
IONMODE=positive
NOMINAL_MASS=300
PARENT_MASS=300.111006992
RECORD_DATE=2016.01.19 (Created 2007.08.01, modified 2011.05.06)
59.0 0.01601602
65.0 0.18418418
79.0 0.00800801
80.0 0.11411410999999999
90.0 0.01201201
92.0 1.0
94.0 0.02002002
108.0 0.7957958
109.0 0.02002002
136.0 0.91391391
137.0 0.02402402
END IONS

BEGIN IONS
CHARGE=1+
INCHIKEY=IDOWTHOLJBTAFI-UHFFFAOYSA-N
INSTRUMENT_TYPE=LC-ESI-QQ
INSTRUMENT=QuattroPremier XE, Waters
COLLISION_ENERGY=30 V
FORMULA=C16H16N2O4
SMILES=COC(=O)Nc(c2)cc(cc2)OC(=O)Nc(c1)cc(C)cc1
CAS=13684-63-4
INCHI=InChI=1S/C16H16N2O4/c1-11-5-3-6-12(9-11)18-16(20)22-14-8-4-7-13(10-14)17-15(19)21-2/h3-10H,1-2H3,(H,17,19)(H,18,20)
AUTHOR=Nihon Waters K.K.
LICENSE=CC BY-NC
SPLASH=splash10-000i-0900000000-80d8defd67fd5073f084
SUBMITTER=submitter = Nihon Waters (Nihon Waters K.K.)
SYNON_$=00in-source
COMPUTED_SMILES=OC(=NC1=CC=CC(=C1)C)OC=2C=CC=C(N=C(O)OC)C2
COMPUTED_[2M+H-H2O]+=583.214643984
COMPUTED_[2M+K]+=639.320313984
COMPUTED_[M+H]+=301.118976992
COMPUTED_[2M+NA]+=623.211783984
COMPUTED_[2M+CL]-=635.675013984
COMPUTED_[2M+HAC-H]-=659.266043984
COMPUTED_[M-H20-H]-=281.092616992
COMPUTED_[M-H]-=299.103730992
COMPUTED_[2M-H]-=599.214737984
COMPUTED_[M+NA]+=323.100776992
COMPUTED_[M+H-H2O]+=283.103636992
COMPUTED_[2M+NH4]+=618.260593984
COMPUTED_[M+CL]-=335.56400699200003
COMPUTED_[M+NH4]+=318.149586992
COMPUTED_[M+K]+=339.209306992
COMPUTED_[2M+H]+=601.229983984
COMPUTED_[M+HAC-H]-=359.155036992
FIND_PEAK=ignore rel.int. < 5
COMPUTED_SPECTRAL_ENTROPY=0.9062743565385042
COMPUTED_NORMALIZED_ENTROPY=0.505801348955033
COMPUTED_MASS_ACCURACY=53680.14773098677
COMPUTED_MASS_ERROR=17.08102300799999
MONA_RATING=4.166666666666666
NUM_PEAKS=6
COMPOUND_NAME=Phenmedipham
SPECTRUM_ID=WA000135
ADDUCT=[M+NH4]+
MS_LEVEL=MS2
PRECURSOR_MZ=318.2
IONMODE=positive
NOMINAL_MASS=300
PARENT_MASS=300.111006992
RECORD_DATE=2016.01.19 (Created 2007.08.01, modified 2011.05.06)
65.0 0.00800801
92.0 0.1021021
108.0 0.18018018000000002
136.0 1.0
137.0 0.02402402
168.0 0.04704705
END IONS

BEGIN IONS
CHARGE=1+
INCHIKEY=IDOWTHOLJBTAFI-UHFFFAOYSA-N
INSTRUMENT_TYPE=LC-ESI-QQ
INSTRUMENT=QuattroPremier XE, Waters
COLLISION_ENERGY=20 V
FORMULA=C16H16N2O4
SMILES=COC(=O)Nc(c2)cc(cc2)OC(=O)Nc(c1)cc(C)cc1
CAS=13684-63-4
INCHI=InChI=1S/C16H16N2O4/c1-11-5-3-6-12(9-11)18-16(20)22-14-8-4-7-13(10-14)17-15(19)21-2/h3-10H,1-2H3,(H,17,19)(H,18,20)
AUTHOR=Nihon Waters K.K.
LICENSE=CC BY-NC
SPLASH=splash10-00kr-0900000000-bbfa920320958e4c8fc6
SUBMITTER=submitter = Nihon Waters (Nihon Waters K.K.)
SYNON_$=00in-source
COMPUTED_SMILES=OC(=NC1=CC=CC(=C1)C)OC=2C=CC=C(N=C(O)OC)C2
COMPUTED_[2M+H-H2O]+=583.214643984
COMPUTED_[2M+K]+=639.320313984
COMPUTED_[M+H]+=301.118976992
COMPUTED_[2M+NA]+=623.211783984
COMPUTED_[2M+CL]-=635.675013984
COMPUTED_[2M+HAC-H]-=659.266043984
COMPUTED_[M-H20-H]-=281.092616992
COMPUTED_[M-H]-=299.103730992
COMPUTED_[2M-H]-=599.214737984
COMPUTED_[M+NA]+=323.100776992
COMPUTED_[M+H-H2O]+=283.103636992
COMPUTED_[2M+NH4]+=618.260593984
COMPUTED_[M+CL]-=335.56400699200003
COMPUTED_[M+NH4]+=318.149586992
COMPUTED_[M+K]+=339.209306992
COMPUTED_[2M+H]+=601.229983984
COMPUTED_[M+HAC-H]-=359.155036992
FIND_PEAK=ignore rel.int. < 5
COMPUTED_SPECTRAL_ENTROPY=0.8506364063457561
COMPUTED_NORMALIZED_ENTROPY=0.4747492177129313
COMPUTED_MASS_ACCURACY=53680.14773098677
COMPUTED_MASS_ERROR=17.08102300799999
MONA_RATING=4.166666666666666
NUM_PEAKS=6
COMPOUND_NAME=Phenmedipham
SPECTRUM_ID=WA000134
ADDUCT=[M+NH4]+
MS_LEVEL=MS2
PRECURSOR_MZ=318.2
IONMODE=positive
NOMINAL_MASS=300
PARENT_MASS=300.111006992
RECORD_DATE=2016.01.19 (Created 2007.08.01, modified 2011.05.06)
92.0 0.00800801
107.0 0.01601602
136.0 1.0
137.0 0.02002002
168.0 0.8038038000000001
169.0 0.01601602
END IONS

BEGIN IONS
CHARGE=1+
INCHIKEY=IDOWTHOLJBTAFI-UHFFFAOYSA-N
INSTRUMENT_TYPE=LC-ESI-QQ
INSTRUMENT=QuattroPremier XE, Waters
COLLISION_ENERGY=10 V
FORMULA=C16H16N2O4
SMILES=COC(=O)Nc(c2)cc(cc2)OC(=O)Nc(c1)cc(C)cc1
CAS=13684-63-4
INCHI=InChI=1S/C16H16N2O4/c1-11-5-3-6-12(9-11)18-16(20)22-14-8-4-7-13(10-14)17-15(19)21-2/h3-10H,1-2H3,(H,17,19)(H,18,20)
AUTHOR=Nihon Waters K.K.
LICENSE=CC BY-NC
SPLASH=splash10-0gb9-0905000000-8fa09835705403e48f9c
SUBMITTER=submitter = Nihon Waters (Nihon Waters K.K.)
SYNON_$=00in-source
COMPUTED_SMILES=OC(=NC1=CC=CC(=C1)C)OC=2C=CC=C(N=C(O)OC)C2
COMPUTED_[2M+H-H2O]+=583.214643984
COMPUTED_[2M+K]+=639.320313984
COMPUTED_[M+H]+=301.118976992
COMPUTED_[2M+NA]+=623.211783984
COMPUTED_[2M+CL]-=635.675013984
COMPUTED_[2M+HAC-H]-=659.266043984
COMPUTED_[M-H20-H]-=281.092616992
COMPUTED_[M-H]-=299.103730992
COMPUTED_[2M-H]-=599.214737984
COMPUTED_[M+NA]+=323.100776992
COMPUTED_[M+H-H2O]+=283.103636992
COMPUTED_[2M+NH4]+=618.260593984
COMPUTED_[M+CL]-=335.56400699200003
COMPUTED_[M+NH4]+=318.149586992
COMPUTED_[M+K]+=339.209306992
COMPUTED_[2M+H]+=601.229983984
COMPUTED_[M+HAC-H]-=359.155036992
FIND_PEAK=ignore rel.int. < 5
COMPUTED_SPECTRAL_ENTROPY=0.981477803765416
COMPUTED_NORMALIZED_ENTROPY=0.5477731920056584
COMPUTED_MASS_ACCURACY=53680.14773098677
COMPUTED_MASS_ERROR=17.08102300799999
MONA_RATING=4.166666666666666
NUM_PEAKS=6
COMPOUND_NAME=Phenmedipham
SPECTRUM_ID=WA000133
ADDUCT=[M+NH4]+
MS_LEVEL=MS2
PRECURSOR_MZ=318.2
IONMODE=positive
NOMINAL_MASS=300
PARENT_MASS=300.111006992
RECORD_DATE=2016.01.19 (Created 2007.08.01, modified 2011.05.06)
136.0 0.043043040000000005
168.0 1.0
169.0 0.01601602
301.0 0.50950951
302.0 0.02402402
318.0 0.055055059999999996
END IONS

BEGIN IONS
CHARGE=1+
INCHIKEY=GOWLARCWZRESHU-AQTBWJFISA-N
INSTRUMENT_TYPE=LC-ESI-QQ
INSTRUMENT=QuattroPremier XE, Waters
COLLISION_ENERGY=40 V
FORMULA=C15H18N4
SMILES=CC(=C1)NC(=NN=C(C)c(c2)c(C)ccc2)N=C(C)1
CAS=89269-64-7
INCHI=InChI=1S/C15H18N4/c1-10-7-5-6-8-14(10)13(4)18-19-15-16-11(2)9-12(3)17-15/h5-9H,1-4H3,(H,16,17,19)/b18-13-
AUTHOR=Nihon Waters K.K.
LICENSE=CC BY-NC
SPLASH=splash10-0006-9300000000-4d944c089fb3d6e07a9a
SUBMITTER=submitter = Nihon Waters (Nihon Waters K.K.)
SYNON_$=00in-source
COMPUTED_SMILES=N(NC=1N=C(C=C(N1)C)C)=C(C=2C=CC=CC2C)C
COMPUTED_[2M+H-H2O]+=491.298923152
COMPUTED_[2M+K]+=547.404593152
COMPUTED_[M+H]+=255.16111657599998
COMPUTED_[2M+NA]+=531.296063152
COMPUTED_[2M+CL]-=543.7592931519999
COMPUTED_[2M+HAC-H]-=567.350323152
COMPUTED_[M-H20-H]-=235.13475657599997
COMPUTED_[M-H]-=253.145870576
COMPUTED_[2M-H]-=507.299017152
COMPUTED_[M+NA]+=277.142916576
COMPUTED_[M+H-H2O]+=237.14577657599997
COMPUTED_[2M+NH4]+=526.344873152
COMPUTED_[M+CL]-=289.606146576
COMPUTED_[M+NH4]+=272.191726576
COMPUTED_[M+K]+=293.251446576
COMPUTED_[2M+H]+=509.31426315199997
COMPUTED_[M+HAC-H]-=313.197176576
FIND_PEAK=ignore rel.int. < 5
COMPUTED_SPECTRAL_ENTROPY=1.9893964276677611
COMPUTED_NORMALIZED_ENTROPY=0.6756453238609659
COMPUTED_MASS_ACCURACY=82.76466253820321
COMPUTED_MASS_ERROR=-0.021116575999997167
MONA_RATING=4.545454545454546
NUM_PEAKS=19
COMPOUND_NAME=Ferimzone Z
SPECTRUM_ID=WA000132
ADDUCT=[M+H]+
MS_LEVEL=MS2
PRECURSOR_MZ=255.14
IONMODE=positive
NOMINAL_MASS=254
PARENT_MASS=254.15314657599998
RECORD_DATE=2016.01.19 (Created 2007.08.01, modified 2011.05.06)
54.0 0.00800801
65.0 0.18818819
66.0 0.03903904
80.0 0.02402402
82.0 0.05905906
83.0 0.01201201
91.0 1.0
92.0 0.01601602
94.0 0.03103103
95.0 0.23123123
105.0 0.02402402
107.0 0.09809810000000001
115.0 0.02402402
117.0 0.19219218999999998
118.0 0.00800801
122.0 0.01201201
123.0 0.19619620000000002
130.0 0.01601602
132.0 0.04704705
END IONS

BEGIN IONS
CHARGE=1+
INCHIKEY=GOWLARCWZRESHU-AQTBWJFISA-N
INSTRUMENT_TYPE=LC-ESI-QQ
INSTRUMENT=QuattroPremier XE, Waters
COLLISION_ENERGY=30 V
FORMULA=C15H18N4
CAS=89269-64-7
SMILES=CC(=C1)NC(=NN=C(C)c(c2)c(C)ccc2)N=C(C)1
INCHI=InChI=1S/C15H18N4/c1-10-7-5-6-8-14(10)13(4)18-19-15-16-11(2)9-12(3)17-15/h5-9H,1-4H3,(H,16,17,19)/b18-13-
AUTHOR=Nihon Waters K.K.
LICENSE=CC BY-NC
SPLASH=splash10-0006-8900000000-6c07912a9415531c7ca7
SUBMITTER=submitter = Nihon Waters (Nihon Waters K.K.)
SYNON_$=00in-source
COMPUTED_SMILES=N(NC=1N=C(C=C(N1)C)C)=C(C=2C=CC=CC2C)C
COMPUTED_[2M+H-H2O]+=491.298923152
COMPUTED_[2M+K]+=547.404593152
COMPUTED_[M+H]+=255.16111657599998
COMPUTED_[2M+NA]+=531.296063152
COMPUTED_[2M+CL]-=543.7592931519999
COMPUTED_[2M+HAC-H]-=567.350323152
COMPUTED_[M-H20-H]-=235.13475657599997
COMPUTED_[M-H]-=253.145870576
COMPUTED_[2M-H]-=507.299017152
COMPUTED_[M+NA]+=277.142916576
COMPUTED_[M+H-H2O]+=237.14577657599997
COMPUTED_[2M+NH4]+=526.344873152
COMPUTED_[M+CL]-=289.606146576
COMPUTED_[M+NH4]+=272.191726576
COMPUTED_[M+K]+=293.251446576
COMPUTED_[2M+H]+=509.31426315199997
COMPUTED_[M+HAC-H]-=313.197176576
FIND_PEAK=ignore rel.int. < 5
COMPUTED_SPECTRAL_ENTROPY=1.9047057594259644
COMPUTED_NORMALIZED_ENTROPY=0.635806402408021
COMPUTED_MASS_ACCURACY=82.76466253820321
COMPUTED_MASS_ERROR=-0.021116575999997167
MONA_RATING=4.545454545454546
NUM_PEAKS=20
COMPOUND_NAME=Ferimzone Z
SPECTRUM_ID=WA000131
ADDUCT=[M+H]+
MS_LEVEL=MS2
PRECURSOR_MZ=255.14
IONMODE=positive
NOMINAL_MASS=254
PARENT_MASS=254.15314657599998
RECORD_DATE=2016.01.19 (Created 2007.08.01, modified 2011.05.06)
65.0 0.03103103
66.0 0.00800801
80.0 0.01201201
81.0 0.02402402
91.0 1.0
92.0 0.01601602
94.0 0.00800801
95.0 0.11411410999999999
105.0 0.03903904
107.0 0.06306306
115.0 0.02702703
117.0 0.33333333000000004
118.0 0.00800801
122.0 0.02702703
123.0 0.42342342
125.0 0.00800801
130.0 0.01201201
132.0 0.27827828
133.0 0.00800801
163.0 0.02002002
END IONS

BEGIN IONS
CHARGE=1+
INCHIKEY=GOWLARCWZRESHU-AQTBWJFISA-N
INSTRUMENT_TYPE=LC-ESI-QQ
INSTRUMENT=QuattroPremier XE, Waters
COLLISION_ENERGY=20 V
FORMULA=C15H18N4
SMILES=CC(=C1)NC(=NN=C(C)c(c2)c(C)ccc2)N=C(C)1
CAS=89269-64-7
INCHI=InChI=1S/C15H18N4/c1-10-7-5-6-8-14(10)13(4)18-19-15-16-11(2)9-12(3)17-15/h5-9H,1-4H3,(H,16,17,19)/b18-13-
AUTHOR=Nihon Waters K.K.
LICENSE=CC BY-NC
SPLASH=splash10-0089-1920000000-62dfa53dd53f48a7c64a
SUBMITTER=submitter = Nihon Waters (Nihon Waters K.K.)
SYNON_$=00in-source
COMPUTED_SMILES=N(NC=1N=C(C=C(N1)C)C)=C(C=2C=CC=CC2C)C
COMPUTED_[2M+H-H2O]+=491.298923152
COMPUTED_[2M+K]+=547.404593152
COMPUTED_[M+H]+=255.16111657599998
COMPUTED_[2M+NA]+=531.296063152
COMPUTED_[2M+CL]-=543.7592931519999
COMPUTED_[2M+HAC-H]-=567.350323152
COMPUTED_[M-H20-H]-=235.13475657599997
COMPUTED_[M-H]-=253.145870576
COMPUTED_[2M-H]-=507.299017152
COMPUTED_[M+NA]+=277.142916576
COMPUTED_[M+H-H2O]+=237.14577657599997
COMPUTED_[2M+NH4]+=526.344873152
COMPUTED_[M+CL]-=289.606146576
COMPUTED_[M+NH4]+=272.191726576
COMPUTED_[M+K]+=293.251446576
COMPUTED_[2M+H]+=509.31426315199997
COMPUTED_[M+HAC-H]-=313.197176576
FIND_PEAK=ignore rel.int. < 5
COMPUTED_SPECTRAL_ENTROPY=1.862026513478032
COMPUTED_NORMALIZED_ENTROPY=0.6442169621922125
COMPUTED_MASS_ACCURACY=82.76466253820321
COMPUTED_MASS_ERROR=-0.021116575999997167
MONA_RATING=4.545454545454546
NUM_PEAKS=18
COMPOUND_NAME=Ferimzone Z
SPECTRUM_ID=WA000130
ADDUCT=[M+H]+
MS_LEVEL=MS2
PRECURSOR_MZ=255.14
IONMODE=positive
NOMINAL_MASS=254
PARENT_MASS=254.15314657599998
RECORD_DATE=2016.01.19 (Created 2007.08.01, modified 2011.05.06)
90.0 0.27427427000000004
95.0 0.01201201
97.0 0.01201201
104.0 0.02002002
107.0 0.02402402
114.0 0.01201201
116.0 0.19219218999999998
122.0 0.01601602
124.0 0.6826826800000001
125.0 0.01201201
132.0 1.0
133.0 0.02402402
139.0 0.00800801
148.0 0.01201201
163.0 0.08608608999999999
238.0 0.03103103
255.0 0.4984985
256.0 0.02002002
END IONS

BEGIN IONS
CHARGE=1+
INCHIKEY=GOWLARCWZRESHU-AQTBWJFISA-N
INSTRUMENT_TYPE=LC-ESI-QQ
INSTRUMENT=QuattroPremier XE, Waters
COLLISION_ENERGY=10 V
FORMULA=C15H18N4
SMILES=CC(=C1)NC(=NN=C(C)c(c2)c(C)ccc2)N=C(C)1
CAS=89269-64-7
INCHI=InChI=1S/C15H18N4/c1-10-7-5-6-8-14(10)13(4)18-19-15-16-11(2)9-12(3)17-15/h5-9H,1-4H3,(H,16,17,19)/b18-13-
AUTHOR=Nihon Waters K.K.
LICENSE=CC BY-NC
SPLASH=splash10-0a4i-0090000000-d68d66b0fe5ee17a2ced
SUBMITTER=submitter = Nihon Waters (Nihon Waters K.K.)
SYNON_$=00in-source
COMPUTED_SMILES=N(NC=1N=C(C=C(N1)C)C)=C(C=2C=CC=CC2C)C
COMPUTED_[2M+H-H2O]+=491.298923152
COMPUTED_[2M+K]+=547.404593152
COMPUTED_[M+H]+=255.16111657599998
COMPUTED_[2M+NA]+=531.296063152
COMPUTED_[2M+CL]-=543.7592931519999
COMPUTED_[2M+HAC-H]-=567.350323152
COMPUTED_[M-H20-H]-=235.13475657599997
COMPUTED_[M-H]-=253.145870576
COMPUTED_[2M-H]-=507.299017152
COMPUTED_[M+NA]+=277.142916576
COMPUTED_[M+H-H2O]+=237.14577657599997
COMPUTED_[2M+NH4]+=526.344873152
COMPUTED_[M+CL]-=289.606146576
COMPUTED_[M+NH4]+=272.191726576
COMPUTED_[M+K]+=293.251446576
COMPUTED_[2M+H]+=509.31426315199997
COMPUTED_[M+HAC-H]-=313.197176576
FIND_PEAK=ignore rel.int. < 5
COMPUTED_SPECTRAL_ENTROPY=0.3311572907986241
COMPUTED_NORMALIZED_ENTROPY=0.23887949059469968
COMPUTED_MASS_ACCURACY=82.76466253820321
COMPUTED_MASS_ERROR=-0.021116575999997167
MONA_RATING=4.545454545454546
NUM_PEAKS=4
COMPOUND_NAME=Ferimzone Z
SPECTRUM_ID=WA000129
ADDUCT=[M+H]+
MS_LEVEL=MS2
PRECURSOR_MZ=255.14
IONMODE=positive
NOMINAL_MASS=254
PARENT_MASS=254.15314657599998
RECORD_DATE=2016.01.19 (Created 2007.08.01, modified 2011.05.06)
124.0 0.01201201
132.0 0.02002002
255.0 1.0
256.0 0.04704705
END IONS

BEGIN IONS
CHARGE=1+
INCHIKEY=GOWLARCWZRESHU-QGOAFFKASA-N
INSTRUMENT_TYPE=LC-ESI-QQ
INSTRUMENT=QuattroPremier XE, Waters
COLLISION_ENERGY=40 V
FORMULA=C15H18N4
CAS=77359-18-3
SMILES=CC(=C1)NC(=NN=C(C)c(c2)c(C)ccc2)N=C(C)1
INCHI=InChI=1S/C15H18N4/c1-10-7-5-6-8-14(10)13(4)18-19-15-16-11(2)9-12(3)17-15/h5-9H,1-4H3,(H,16,17,19)/b18-13+
AUTHOR=Nihon Waters K.K.
LICENSE=CC BY-NC
SPLASH=splash10-0006-9300000000-eb5892bc4f8e9dac90de
SUBMITTER=submitter = Nihon Waters (Nihon Waters K.K.)
SYNON_$=00in-source
COMPUTED_SMILES=N(NC=1N=C(C=C(N1)C)C)=C(C=2C=CC=CC2C)C
COMPUTED_[2M+H-H2O]+=491.298923152
COMPUTED_[2M+K]+=547.404593152
COMPUTED_[M+H]+=255.16111657599998
COMPUTED_[2M+NA]+=531.296063152
COMPUTED_[2M+CL]-=543.7592931519999
COMPUTED_[2M+HAC-H]-=567.350323152
COMPUTED_[M-H20-H]-=235.13475657599997
COMPUTED_[M-H]-=253.145870576
COMPUTED_[2M-H]-=507.299017152
COMPUTED_[M+NA]+=277.142916576
COMPUTED_[M+H-H2O]+=237.14577657599997
COMPUTED_[2M+NH4]+=526.344873152
COMPUTED_[M+CL]-=289.606146576
COMPUTED_[M+NH4]+=272.191726576
COMPUTED_[M+K]+=293.251446576
COMPUTED_[2M+H]+=509.31426315199997
COMPUTED_[M+HAC-H]-=313.197176576
FIND_PEAK=ignore rel.int. < 5
COMPUTED_SPECTRAL_ENTROPY=1.9603717534170275
COMPUTED_NORMALIZED_ENTROPY=0.665787869026242
COMPUTED_MASS_ACCURACY=82.76466253820321
COMPUTED_MASS_ERROR=-0.021116575999997167
MONA_RATING=4.545454545454546
NUM_PEAKS=19
COMPOUND_NAME=Ferimzone E
SPECTRUM_ID=WA000128
ADDUCT=[M+H]+
MS_LEVEL=MS2
PRECURSOR_MZ=255.14
IONMODE=positive
NOMINAL_MASS=254
PARENT_MASS=254.15314657599998
RECORD_DATE=2016.01.19 (Created 2007.08.01, modified 2011.05.06)
65.0 0.17617618000000002
66.0 0.02702703
77.0 0.00800801
79.0 0.02002002
82.0 0.06706706999999999
83.0 0.01601602
90.0 1.0
92.0 0.01601602
94.0 0.02002002
95.0 0.22322322
104.0 0.02402402
106.0 0.09809810000000001
115.0 0.03103103
116.0 0.23123123
118.0 0.00800801
122.0 0.01201201
123.0 0.16116116000000003
130.0 0.01201201
131.0 0.03903904
END IONS

BEGIN IONS
CHARGE=1+
INCHIKEY=GOWLARCWZRESHU-QGOAFFKASA-N
INSTRUMENT_TYPE=LC-ESI-QQ
INSTRUMENT=QuattroPremier XE, Waters
COLLISION_ENERGY=30 V
FORMULA=C15H18N4
SMILES=CC(=C1)NC(=NN=C(C)c(c2)c(C)ccc2)N=C(C)1
CAS=77359-18-3
INCHI=InChI=1S/C15H18N4/c1-10-7-5-6-8-14(10)13(4)18-19-15-16-11(2)9-12(3)17-15/h5-9H,1-4H3,(H,16,17,19)/b18-13+
AUTHOR=Nihon Waters K.K.
LICENSE=CC BY-NC
SPLASH=splash10-0006-7900000000-0063e63cfa437ca041d0
SUBMITTER=submitter = Nihon Waters (Nihon Waters K.K.)
SYNON_$=00in-source
COMPUTED_SMILES=N(NC=1N=C(C=C(N1)C)C)=C(C=2C=CC=CC2C)C
COMPUTED_[2M+H-H2O]+=491.298923152
COMPUTED_[2M+K]+=547.404593152
COMPUTED_[M+H]+=255.16111657599998
COMPUTED_[2M+NA]+=531.296063152
COMPUTED_[2M+CL]-=543.7592931519999
COMPUTED_[2M+HAC-H]-=567.350323152
COMPUTED_[M-H20-H]-=235.13475657599997
COMPUTED_[M-H]-=253.145870576
COMPUTED_[2M-H]-=507.299017152
COMPUTED_[M+NA]+=277.142916576
COMPUTED_[M+H-H2O]+=237.14577657599997
COMPUTED_[2M+NH4]+=526.344873152
COMPUTED_[M+CL]-=289.606146576
COMPUTED_[M+NH4]+=272.191726576
COMPUTED_[M+K]+=293.251446576
COMPUTED_[2M+H]+=509.31426315199997
COMPUTED_[M+HAC-H]-=313.197176576
FIND_PEAK=ignore rel.int. < 5
COMPUTED_SPECTRAL_ENTROPY=1.87450277582567
COMPUTED_NORMALIZED_ENTROPY=0.6366247659023774
COMPUTED_MASS_ACCURACY=82.76466253820321
COMPUTED_MASS_ERROR=-0.021116575999997167
MONA_RATING=4.545454545454546
NUM_PEAKS=19
COMPOUND_NAME=Ferimzone E
SPECTRUM_ID=WA000127
ADDUCT=[M+H]+
MS_LEVEL=MS2
PRECURSOR_MZ=255.14
IONMODE=positive
NOMINAL_MASS=254
PARENT_MASS=254.15314657599998
RECORD_DATE=2016.01.19 (Created 2007.08.01, modified 2011.05.06)
65.0 0.035035039999999996
66.0 0.00800801
79.0 0.00800801
81.0 0.02702703
91.0 1.0
92.0 0.01601602
95.0 0.08608608999999999
104.0 0.04704705
106.0 0.055055059999999996
114.0 0.02702703
116.0 0.34934935
118.0 0.00800801
122.0 0.03103103
123.0 0.49449449
125.0 0.00800801
130.0 0.01201201
132.0 0.27027027
133.0 0.00800801
163.0 0.02002002
END IONS

BEGIN IONS
CHARGE=1+
INCHIKEY=GOWLARCWZRESHU-QGOAFFKASA-N
INSTRUMENT_TYPE=LC-ESI-QQ
INSTRUMENT=QuattroPremier XE, Waters
COLLISION_ENERGY=20 V
FORMULA=C15H18N4
CAS=77359-18-3
SMILES=CC(=C1)NC(=NN=C(C)c(c2)c(C)ccc2)N=C(C)1
INCHI=InChI=1S/C15H18N4/c1-10-7-5-6-8-14(10)13(4)18-19-15-16-11(2)9-12(3)17-15/h5-9H,1-4H3,(H,16,17,19)/b18-13+
AUTHOR=Nihon Waters K.K.
LICENSE=CC BY-NC
SPLASH=splash10-0089-1920000000-30526c45ed66c80eb7f4
SUBMITTER=submitter = Nihon Waters (Nihon Waters K.K.)
SYNON_$=00in-source
COMPUTED_SMILES=N(NC=1N=C(C=C(N1)C)C)=C(C=2C=CC=CC2C)C
COMPUTED_[2M+H-H2O]+=491.298923152
COMPUTED_[2M+K]+=547.404593152
COMPUTED_[M+H]+=255.16111657599998
COMPUTED_[2M+NA]+=531.296063152
COMPUTED_[2M+CL]-=543.7592931519999
COMPUTED_[2M+HAC-H]-=567.350323152
COMPUTED_[M-H20-H]-=235.13475657599997
COMPUTED_[M-H]-=253.145870576
COMPUTED_[2M-H]-=507.299017152
COMPUTED_[M+NA]+=277.142916576
COMPUTED_[M+H-H2O]+=237.14577657599997
COMPUTED_[2M+NH4]+=526.344873152
COMPUTED_[M+CL]-=289.606146576
COMPUTED_[M+NH4]+=272.191726576
COMPUTED_[M+K]+=293.251446576
COMPUTED_[2M+H]+=509.31426315199997
COMPUTED_[M+HAC-H]-=313.197176576
FIND_PEAK=ignore rel.int. < 5
COMPUTED_SPECTRAL_ENTROPY=1.8545243848089459
COMPUTED_NORMALIZED_ENTROPY=0.6545657384748463
COMPUTED_MASS_ACCURACY=82.76466253820321
COMPUTED_MASS_ERROR=-0.021116575999997167
MONA_RATING=4.545454545454546
NUM_PEAKS=17
COMPOUND_NAME=Ferimzone E
SPECTRUM_ID=WA000126
ADDUCT=[M+H]+
MS_LEVEL=MS2
PRECURSOR_MZ=255.14
IONMODE=positive
NOMINAL_MASS=254
PARENT_MASS=254.15314657599998
RECORD_DATE=2016.01.19 (Created 2007.08.01, modified 2011.05.06)
90.0 0.25925926
95.0 0.00800801
97.0 0.01201201
104.0 0.02002002
107.0 0.02702703
114.0 0.01201201
117.0 0.21521522
122.0 0.02002002
124.0 0.74074074
125.0 0.01201201
132.0 1.0
133.0 0.03103103
148.0 0.01201201
163.0 0.08208208
238.0 0.03103103
255.0 0.46646647
256.0 0.02402402
END IONS

BEGIN IONS
CHARGE=1+
INCHIKEY=GOWLARCWZRESHU-QGOAFFKASA-N
INSTRUMENT_TYPE=LC-ESI-QQ
INSTRUMENT=QuattroPremier XE, Waters
COLLISION_ENERGY=10 V
FORMULA=C15H18N4
SMILES=CC(=C1)NC(=NN=C(C)c(c2)c(C)ccc2)N=C(C)1
CAS=77359-18-3
INCHI=InChI=1S/C15H18N4/c1-10-7-5-6-8-14(10)13(4)18-19-15-16-11(2)9-12(3)17-15/h5-9H,1-4H3,(H,16,17,19)/b18-13+
AUTHOR=Nihon Waters K.K.
LICENSE=CC BY-NC
SPLASH=splash10-0a4i-0090000000-2bb802829e8042913e63
SUBMITTER=submitter = Nihon Waters (Nihon Waters K.K.)
SYNON_$=00in-source
COMPUTED_SMILES=N(NC=1N=C(C=C(N1)C)C)=C(C=2C=CC=CC2C)C
COMPUTED_[2M+H-H2O]+=491.298923152
COMPUTED_[2M+K]+=547.404593152
COMPUTED_[M+H]+=255.16111657599998
COMPUTED_[2M+NA]+=531.296063152
COMPUTED_[2M+CL]-=543.7592931519999
COMPUTED_[2M+HAC-H]-=567.350323152
COMPUTED_[M-H20-H]-=235.13475657599997
COMPUTED_[M-H]-=253.145870576
COMPUTED_[2M-H]-=507.299017152
COMPUTED_[M+NA]+=277.142916576
COMPUTED_[M+H-H2O]+=237.14577657599997
COMPUTED_[2M+NH4]+=526.344873152
COMPUTED_[M+CL]-=289.606146576
COMPUTED_[M+NH4]+=272.191726576
COMPUTED_[M+K]+=293.251446576
COMPUTED_[2M+H]+=509.31426315199997
COMPUTED_[M+HAC-H]-=313.197176576
FIND_PEAK=ignore rel.int. < 5
COMPUTED_SPECTRAL_ENTROPY=0.30647941349335955
COMPUTED_NORMALIZED_ENTROPY=0.22107816499071395
COMPUTED_MASS_ACCURACY=82.76466253820321
COMPUTED_MASS_ERROR=-0.021116575999997167
MONA_RATING=4.545454545454546
NUM_PEAKS=4
COMPOUND_NAME=Ferimzone E
SPECTRUM_ID=WA000125
ADDUCT=[M+H]+
MS_LEVEL=MS2
PRECURSOR_MZ=255.14
IONMODE=positive
NOMINAL_MASS=254
PARENT_MASS=254.15314657599998
RECORD_DATE=2016.01.19 (Created 2007.08.01, modified 2011.05.06)
124.0 0.01201201
131.0 0.01601602
255.0 1.0
256.0 0.043043040000000005
END IONS

BEGIN IONS
CHARGE=1+
INCHIKEY=HJUFTIJOISQSKQ-UHFFFAOYSA-N
INSTRUMENT_TYPE=LC-ESI-QQ
INSTRUMENT=QuattroPremier XE, Waters
COLLISION_ENERGY=20 V
FORMULA=C17H19NO4
SMILES=CCOC(=O)NCCOc(c2)ccc(c2)Oc(c1)cccc1
CAS=72490-01-8
INCHI=InChI=1S/C17H19NO4/c1-2-20-17(19)18-12-13-21-14-8-10-16(11-9-14)22-15-6-4-3-5-7-15/h3-11H,2,12-13H2,1H3,(H,18,19)
AUTHOR=Nihon Waters K.K.
LICENSE=CC BY-NC
SPLASH=splash10-000i-9100000000-464e60e10c88334f8dd9
SUBMITTER=submitter = Nihon Waters (Nihon Waters K.K.)
SYNON_$=00in-source
COMPUTED_SMILES=OC(=NCCOC1=CC=C(OC=2C=CC=CC2)C=C1)OCC
COMPUTED_[2M+H-H2O]+=585.255446176
COMPUTED_[2M+K]+=641.361116176
COMPUTED_[M+H]+=302.139378088
COMPUTED_[2M+NA]+=625.252586176
COMPUTED_[2M+CL]-=637.715816176
COMPUTED_[2M+HAC-H]-=661.306846176
COMPUTED_[M-H20-H]-=282.113018088
COMPUTED_[M-H]-=300.124132088
COMPUTED_[2M-H]-=601.255540176
COMPUTED_[M+NA]+=324.121178088
COMPUTED_[M+H-H2O]+=284.124038088
COMPUTED_[2M+NH4]+=620.301396176
COMPUTED_[M+CL]-=336.58440808800003
COMPUTED_[M+NH4]+=319.169988088
COMPUTED_[M+K]+=340.229708088
COMPUTED_[2M+H]+=603.270786176
COMPUTED_[M+HAC-H]-=360.175438088
FIND_PEAK=ignore rel.int. < 5
COMPUTED_SPECTRAL_ENTROPY=0.8371005811474302
COMPUTED_NORMALIZED_ENTROPY=0.3635481631903342
COMPUTED_MASS_ACCURACY=200.60195896753075
COMPUTED_MASS_ERROR=0.06062191199998779
MONA_RATING=4.545454545454546
NUM_PEAKS=10
COMPOUND_NAME=Fenoxycarb
SPECTRUM_ID=WA000124
ADDUCT=[M+H]+
MS_LEVEL=MS2
PRECURSOR_MZ=302.2
IONMODE=positive
NOMINAL_MASS=301
PARENT_MASS=301.131408088
RECORD_DATE=2016.01.19 (Created 2007.08.01, modified 2011.05.06)
70.0 0.01601602
87.0 1.0
89.0 0.00800801
116.0 0.18418418
163.0 0.00800801
183.0 0.00800801
186.0 0.00800801
211.0 0.01201201
213.0 0.00800801
256.0 0.03903904
END IONS

BEGIN IONS
CHARGE=1+
INCHIKEY=HJUFTIJOISQSKQ-UHFFFAOYSA-N
INSTRUMENT_TYPE=LC-ESI-QQ
INSTRUMENT=QuattroPremier XE, Waters
COLLISION_ENERGY=40 V
FORMULA=C17H19NO4
SMILES=CCOC(=O)NCCOc(c2)ccc(c2)Oc(c1)cccc1
CAS=72490-01-8
INCHI=InChI=1S/C17H19NO4/c1-2-20-17(19)18-12-13-21-14-8-10-16(11-9-14)22-15-6-4-3-5-7-15/h3-11H,2,12-13H2,1H3,(H,18,19)
AUTHOR=Nihon Waters K.K.
LICENSE=CC BY-NC
SPLASH=splash10-000i-9100000000-1dd1ee0d6f517e101c82
SUBMITTER=submitter = Nihon Waters (Nihon Waters K.K.)
SYNON_$=00in-source
COMPUTED_SMILES=OC(=NCCOC1=CC=C(OC=2C=CC=CC2)C=C1)OCC
COMPUTED_[2M+H-H2O]+=585.255446176
COMPUTED_[2M+K]+=641.361116176
COMPUTED_[M+H]+=302.139378088
COMPUTED_[2M+NA]+=625.252586176
COMPUTED_[2M+CL]-=637.715816176
COMPUTED_[2M+HAC-H]-=661.306846176
COMPUTED_[M-H20-H]-=282.113018088
COMPUTED_[M-H]-=300.124132088
COMPUTED_[2M-H]-=601.255540176
COMPUTED_[M+NA]+=324.121178088
COMPUTED_[M+H-H2O]+=284.124038088
COMPUTED_[2M+NH4]+=620.301396176
COMPUTED_[M+CL]-=336.58440808800003
COMPUTED_[M+NH4]+=319.169988088
COMPUTED_[M+K]+=340.229708088
COMPUTED_[2M+H]+=603.270786176
COMPUTED_[M+HAC-H]-=360.175438088
FIND_PEAK=ignore rel.int. < 5
COMPUTED_SPECTRAL_ENTROPY=1.1878584666382321
COMPUTED_NORMALIZED_ENTROPY=0.41926192008456914
COMPUTED_MASS_ACCURACY=200.60195896753075
COMPUTED_MASS_ERROR=0.06062191199998779
MONA_RATING=4.545454545454546
NUM_PEAKS=17
COMPOUND_NAME=Fenoxycarb
SPECTRUM_ID=WA000123
ADDUCT=[M+H]+
MS_LEVEL=MS2
PRECURSOR_MZ=302.2
IONMODE=positive
NOMINAL_MASS=301
PARENT_MASS=301.131408088
RECORD_DATE=2016.01.19 (Created 2007.08.01, modified 2011.05.06)
65.0 0.02002002
70.0 0.055055059999999996
77.0 0.03903904
87.0 1.0
89.0 0.03903904
93.0 0.03103103
106.0 0.01201201
109.0 0.00800801
115.0 0.01601602
116.0 0.00800801
118.0 0.00800801
119.0 0.01601602
129.0 0.02402402
141.0 0.01601602
157.0 0.00800801
165.0 0.01201201
186.0 0.01201201
END IONS

BEGIN IONS
CHARGE=1+
INCHIKEY=HJUFTIJOISQSKQ-UHFFFAOYSA-N
INSTRUMENT_TYPE=LC-ESI-QQ
INSTRUMENT=QuattroPremier XE, Waters
COLLISION_ENERGY=30 V
FORMULA=C17H19NO4
CAS=72490-01-8
SMILES=CCOC(=O)NCCOc(c2)ccc(c2)Oc(c1)cccc1
INCHI=InChI=1S/C17H19NO4/c1-2-20-17(19)18-12-13-21-14-8-10-16(11-9-14)22-15-6-4-3-5-7-15/h3-11H,2,12-13H2,1H3,(H,18,19)
AUTHOR=Nihon Waters K.K.
LICENSE=CC BY-NC
SPLASH=splash10-000i-9000000000-6a16114d92bc125474df
SUBMITTER=submitter = Nihon Waters (Nihon Waters K.K.)
SYNON_$=00in-source
COMPUTED_SMILES=OC(=NCCOC1=CC=C(OC=2C=CC=CC2)C=C1)OCC
COMPUTED_[2M+H-H2O]+=585.2554461760001
COMPUTED_[2M+K]+=641.3611161760001
COMPUTED_[M+H]+=302.13937808800006
COMPUTED_[2M+NA]+=625.2525861760001
COMPUTED_[2M+CL]-=637.7158161760001
COMPUTED_[2M+HAC-H]-=661.3068461760001
COMPUTED_[M-H20-H]-=282.11301808800005
COMPUTED_[M-H]-=300.12413208800007
COMPUTED_[2M-H]-=601.2555401760001
COMPUTED_[M+NA]+=324.1211780880001
COMPUTED_[M+H-H2O]+=284.1240380880001
COMPUTED_[2M+NH4]+=620.3013961760001
COMPUTED_[M+CL]-=336.58440808800003
COMPUTED_[M+NH4]+=319.1699880880001
COMPUTED_[M+K]+=340.22970808800005
COMPUTED_[2M+H]+=603.2707861760001
COMPUTED_[M+HAC-H]-=360.1754380880001
FIND_PEAK=ignore rel.int. < 5
COMPUTED_SPECTRAL_ENTROPY=0.5903555679579584
COMPUTED_NORMALIZED_ENTROPY=0.2686823978064497
COMPUTED_MASS_ACCURACY=200.60195896734265
COMPUTED_MASS_ERROR=0.060621911999930944
MONA_RATING=4.545454545454546
NUM_PEAKS=9
COMPOUND_NAME=Fenoxycarb
SPECTRUM_ID=WA000122
ADDUCT=[M+H]+
MS_LEVEL=MS2
PRECURSOR_MZ=302.2
IONMODE=positive
NOMINAL_MASS=301
PARENT_MASS=301.13140808800006
RECORD_DATE=2016.01.19 (Created 2007.08.01, modified 2011.05.06)
70.0 0.035035039999999996
87.0 1.0
89.0 0.00800801
93.0 0.02402402
115.0 0.02702703
119.0 0.01201201
129.0 0.00800801
185.0 0.01201201
213.0 0.00800801
END IONS

BEGIN IONS
CHARGE=1+
INCHIKEY=HJUFTIJOISQSKQ-UHFFFAOYSA-N
INSTRUMENT_TYPE=LC-ESI-QQ
INSTRUMENT=QuattroPremier XE, Waters
COLLISION_ENERGY=10 V
FORMULA=C17H19NO4
SMILES=CCOC(=O)NCCOc(c2)ccc(c2)Oc(c1)cccc1
CAS=72490-01-8
INCHI=InChI=1S/C17H19NO4/c1-2-20-17(19)18-12-13-21-14-8-10-16(11-9-14)22-15-6-4-3-5-7-15/h3-11H,2,12-13H2,1H3,(H,18,19)
AUTHOR=Nihon Waters K.K.
LICENSE=CC BY-NC
SPLASH=splash10-0gb9-3914000000-cdf2f82175a3b8c3725c
SUBMITTER=submitter = Nihon Waters (Nihon Waters K.K.)
SYNON_$=00in-source
COMPUTED_SMILES=OC(=NCCOC1=CC=C(OC=2C=CC=CC2)C=C1)OCC
COMPUTED_[2M+H-H2O]+=585.255446176
COMPUTED_[2M+K]+=641.361116176
COMPUTED_[M+H]+=302.139378088
COMPUTED_[2M+NA]+=625.252586176
COMPUTED_[2M+CL]-=637.715816176
COMPUTED_[2M+HAC-H]-=661.306846176
COMPUTED_[M-H20-H]-=282.113018088
COMPUTED_[M-H]-=300.124132088
COMPUTED_[2M-H]-=601.255540176
COMPUTED_[M+NA]+=324.121178088
COMPUTED_[M+H-H2O]+=284.124038088
COMPUTED_[2M+NH4]+=620.301396176
COMPUTED_[M+CL]-=336.58440808800003
COMPUTED_[M+NH4]+=319.169988088
COMPUTED_[M+K]+=340.229708088
COMPUTED_[2M+H]+=603.270786176
COMPUTED_[M+HAC-H]-=360.175438088
FIND_PEAK=ignore rel.int. < 5
COMPUTED_SPECTRAL_ENTROPY=1.312038929223083
COMPUTED_NORMALIZED_ENTROPY=0.6742546308523251
COMPUTED_MASS_ACCURACY=200.60195896753075
COMPUTED_MASS_ERROR=0.06062191199998779
MONA_RATING=4.545454545454546
NUM_PEAKS=7
COMPOUND_NAME=Fenoxycarb
SPECTRUM_ID=WA000121
ADDUCT=[M+H]+
MS_LEVEL=MS2
PRECURSOR_MZ=302.2
IONMODE=positive
NOMINAL_MASS=301
PARENT_MASS=301.131408088
RECORD_DATE=2016.01.19 (Created 2007.08.01, modified 2011.05.06)
87.0 0.35735736
115.0 1.0
117.0 0.01201201
256.0 0.18018018000000002
257.0 0.00800801
302.0 0.50550551
303.0 0.02402402
END IONS

BEGIN IONS
CHARGE=1+
INCHIKEY=LVKTWOXHRYGDMM-UHFFFAOYSA-N
INSTRUMENT_TYPE=LC-ESI-QQ
INSTRUMENT=QuattroPremier XE, Waters
COLLISION_ENERGY=30 V
FORMULA=C19H17NO2
SMILES=O=C(Nc(c3)cccc3)C(C)Oc(c1)cc(c2)c(ccc2)c1
CAS=52570-16-8
INCHI=InChI=1S/C19H17NO2/c1-14(19(21)20-17-9-3-2-4-10-17)22-18-12-11-15-7-5-6-8-16(15)13-18/h2-14H,1H3,(H,20,21)
AUTHOR=Nihon Waters K.K.
LICENSE=CC BY-NC
SPLASH=splash10-00dl-1900000000-be1bfec285ecdef96749
SUBMITTER=submitter = Nihon Waters (Nihon Waters K.K.)
SYNON_$=00in-source
COMPUTED_SMILES=OC(=NC=1C=CC=CC1)C(OC=2C=CC=3C=CC=CC3C2)C
COMPUTED_[2M+H-H2O]+=565.244487568
COMPUTED_[2M+K]+=621.350157568
COMPUTED_[M+H]+=292.133898784
COMPUTED_[2M+NA]+=605.241627568
COMPUTED_[2M+CL]-=617.704857568
COMPUTED_[2M+HAC-H]-=641.295887568
COMPUTED_[M-H20-H]-=272.107538784
COMPUTED_[M-H]-=290.118652784
COMPUTED_[2M-H]-=581.244581568
COMPUTED_[M+NA]+=314.115698784
COMPUTED_[M+H-H2O]+=274.118558784
COMPUTED_[2M+NH4]+=600.290437568
COMPUTED_[M+CL]-=326.578928784
COMPUTED_[M+NH4]+=309.164508784
COMPUTED_[M+K]+=330.224228784
COMPUTED_[2M+H]+=583.259827568
COMPUTED_[M+HAC-H]-=350.169958784
FIND_PEAK=ignore rel.int. < 5
COMPUTED_SPECTRAL_ENTROPY=2.582617749099036
COMPUTED_NORMALIZED_ENTROPY=0.7593260429469454
COMPUTED_MASS_ACCURACY=226.2190828199615
COMPUTED_MASS_ERROR=0.06610121599999275
MONA_RATING=4.545454545454546
NUM_PEAKS=30
COMPOUND_NAME=Naproanilide
SPECTRUM_ID=WA000114
ADDUCT=[M+H]+
MS_LEVEL=MS2
PRECURSOR_MZ=292.2
IONMODE=positive
NOMINAL_MASS=291
PARENT_MASS=291.125928784
RECORD_DATE=2016.01.19 (Created 2007.08.01, modified 2011.05.06)
55.0 0.035035039999999996
56.0 0.01201201
77.0 0.03103103
79.0 0.01601602
90.0 0.10610611
92.0 0.02702703
93.0 0.25925926
94.0 0.01601602
103.0 0.14114114
105.0 0.23923924
106.0 0.03103103
115.0 0.02702703
116.0 0.00800801
117.0 0.04704705
120.0 1.0
121.0 0.02402402
126.0 0.035035039999999996
127.0 0.35735736
129.0 0.035035039999999996
132.0 0.01601602
141.0 0.01201201
143.0 0.28628629
144.0 0.08208208
148.0 0.16116116000000003
149.0 0.02402402
151.0 0.01201201
153.0 0.18818819
154.0 0.00800801
171.0 0.26226226
172.0 0.00800801
END IONS

BEGIN IONS
CHARGE=1+
INCHIKEY=LVKTWOXHRYGDMM-UHFFFAOYSA-N
INSTRUMENT_TYPE=LC-ESI-QQ
INSTRUMENT=QuattroPremier XE, Waters
COLLISION_ENERGY=20 V
FORMULA=C19H17NO2
SMILES=O=C(Nc(c3)cccc3)C(C)Oc(c1)cc(c2)c(ccc2)c1
CAS=52570-16-8
INCHI=InChI=1S/C19H17NO2/c1-14(19(21)20-17-9-3-2-4-10-17)22-18-12-11-15-7-5-6-8-16(15)13-18/h2-14H,1H3,(H,20,21)
AUTHOR=Nihon Waters K.K.
LICENSE=CC BY-NC
SPLASH=splash10-00di-0900000000-78dec1e4a45bddc0f663
SUBMITTER=submitter = Nihon Waters (Nihon Waters K.K.)
SYNON_$=00in-source
COMPUTED_SMILES=OC(=NC=1C=CC=CC1)C(OC=2C=CC=3C=CC=CC3C2)C
COMPUTED_[2M+H-H2O]+=565.244487568
COMPUTED_[2M+K]+=621.350157568
COMPUTED_[M+H]+=292.133898784
COMPUTED_[2M+NA]+=605.241627568
COMPUTED_[2M+CL]-=617.704857568
COMPUTED_[2M+HAC-H]-=641.295887568
COMPUTED_[M-H20-H]-=272.107538784
COMPUTED_[M-H]-=290.118652784
COMPUTED_[2M-H]-=581.244581568
COMPUTED_[M+NA]+=314.115698784
COMPUTED_[M+H-H2O]+=274.118558784
COMPUTED_[2M+NH4]+=600.290437568
COMPUTED_[M+CL]-=326.578928784
COMPUTED_[M+NH4]+=309.164508784
COMPUTED_[M+K]+=330.224228784
COMPUTED_[2M+H]+=583.259827568
COMPUTED_[M+HAC-H]-=350.169958784
FIND_PEAK=ignore rel.int. < 5
COMPUTED_SPECTRAL_ENTROPY=1.9712562838849976
COMPUTED_NORMALIZED_ENTROPY=0.669484508876816
COMPUTED_MASS_ACCURACY=226.2190828199615
COMPUTED_MASS_ERROR=0.06610121599999275
MONA_RATING=4.545454545454546
NUM_PEAKS=19
COMPOUND_NAME=Naproanilide
SPECTRUM_ID=WA000113
ADDUCT=[M+H]+
MS_LEVEL=MS2
PRECURSOR_MZ=292.2
IONMODE=positive
NOMINAL_MASS=291
PARENT_MASS=291.125928784
RECORD_DATE=2016.01.19 (Created 2007.08.01, modified 2011.05.06)
55.0 0.00800801
90.0 0.00800801
92.0 0.00800801
93.0 0.09809810000000001
103.0 0.02402402
105.0 0.11011011
106.0 0.03103103
120.0 0.69369369
121.0 0.01601602
127.0 0.02702703
129.0 0.035035039999999996
143.0 0.12912913
144.0 0.055055059999999996
148.0 0.29029029
149.0 0.06706706999999999
153.0 0.05105105
171.0 1.0
172.0 0.03103103
199.0 0.02702703
END IONS

BEGIN IONS
CHARGE=1+
INCHIKEY=LVKTWOXHRYGDMM-UHFFFAOYSA-N
INSTRUMENT_TYPE=LC-ESI-QQ
INSTRUMENT=QuattroPremier XE, Waters
COLLISION_ENERGY=10 V
FORMULA=C19H17NO2
SMILES=O=C(Nc(c3)cccc3)C(C)Oc(c1)cc(c2)c(ccc2)c1
CAS=52570-16-8
INCHI=InChI=1S/C19H17NO2/c1-14(19(21)20-17-9-3-2-4-10-17)22-18-12-11-15-7-5-6-8-16(15)13-18/h2-14H,1H3,(H,20,21)
AUTHOR=Nihon Waters K.K.
LICENSE=CC BY-NC
SPLASH=splash10-006x-1950000000-a29c5f0c86e784f88f11
SUBMITTER=submitter = Nihon Waters (Nihon Waters K.K.)
SYNON_$=00in-source
COMPUTED_SMILES=OC(=NC=1C=CC=CC1)C(OC=2C=CC=3C=CC=CC3C2)C
COMPUTED_[2M+H-H2O]+=565.244487568
COMPUTED_[2M+K]+=621.350157568
COMPUTED_[M+H]+=292.133898784
COMPUTED_[2M+NA]+=605.241627568
COMPUTED_[2M+CL]-=617.704857568
COMPUTED_[2M+HAC-H]-=641.295887568
COMPUTED_[M-H20-H]-=272.107538784
COMPUTED_[M-H]-=290.118652784
COMPUTED_[2M-H]-=581.244581568
COMPUTED_[M+NA]+=314.115698784
COMPUTED_[M+H-H2O]+=274.118558784
COMPUTED_[2M+NH4]+=600.290437568
COMPUTED_[M+CL]-=326.578928784
COMPUTED_[M+NH4]+=309.164508784
COMPUTED_[M+K]+=330.224228784
COMPUTED_[2M+H]+=583.259827568
COMPUTED_[M+HAC-H]-=350.169958784
FIND_PEAK=ignore rel.int. < 5
COMPUTED_SPECTRAL_ENTROPY=1.6190349411806746
COMPUTED_NORMALIZED_ENTROPY=0.6751900133199907
COMPUTED_MASS_ACCURACY=226.2190828199615
COMPUTED_MASS_ERROR=0.06610121599999275
MONA_RATING=4.545454545454546
NUM_PEAKS=11
COMPOUND_NAME=Naproanilide
SPECTRUM_ID=WA000112
ADDUCT=[M+H]+
MS_LEVEL=MS2
PRECURSOR_MZ=292.2
IONMODE=positive
NOMINAL_MASS=291
PARENT_MASS=291.125928784
RECORD_DATE=2016.01.19 (Created 2007.08.01, modified 2011.05.06)
93.0 0.32132131999999997
120.0 0.15715716000000002
128.0 0.01201201
144.0 0.01201201
148.0 0.11411410999999999
149.0 0.01201201
171.0 1.0
172.0 0.02702703
199.0 0.15715716000000002
292.0 0.9449449400000001
293.0 0.04704705
END IONS

BEGIN IONS
CHARGE=1+
INCHIKEY=YTOPFCCWCSOHFV-UHFFFAOYSA-N
INSTRUMENT_TYPE=LC-ESI-QQ
INSTRUMENT=QuattroPremier XE, Waters
COLLISION_ENERGY=40 V
FORMULA=C19H39NO
SMILES=CCCCCCCCCCCCCN(C1)CC(C)OC(C)1
CAS=81412-43-3
INCHI=InChI=1S/C19H39NO/c1-4-5-6-7-8-9-10-11-12-13-14-15-20-16-18(2)21-19(3)17-20/h18-19H,4-17H2,1-3H3
AUTHOR=Nihon Waters K.K.
LICENSE=CC BY-NC
SPLASH=splash10-0a4i-9100000000-231057dab4b93850982c
SUBMITTER=submitter = Nihon Waters (Nihon Waters K.K.)
SYNON_$=00in-source
COMPUTED_[2M+H]+=595.614299736
COMPUTED_SMILES=O1C(C)CN(CCCCCCCCCCCCC)CC1C
COMPUTED_[2M+H-H2O]+=577.598959736
COMPUTED_[2M+K]+=633.704629736
COMPUTED_[M+H]+=298.311134868
COMPUTED_[2M+NA]+=617.596099736
COMPUTED_[2M+CL]-=630.059329736
COMPUTED_[2M+HAC-H]-=653.650359736
COMPUTED_[M-H20-H]-=278.284774868
COMPUTED_[M-H]-=296.295888868
COMPUTED_[2M-H]-=593.599053736
COMPUTED_[M+NA]+=320.29293486800003
COMPUTED_[M+H-H2O]+=280.29579486800003
COMPUTED_[2M+NH4]+=612.644909736
COMPUTED_[M+CL]-=332.75616486800004
COMPUTED_[M+NH4]+=315.34174486800003
COMPUTED_[M+K]+=336.401464868
COMPUTED_[M+HAC-H]-=356.34719486800003
FIND_PEAK=ignore rel.int. < 5
COMPUTED_SPECTRAL_ENTROPY=2.5486147735414586
COMPUTED_NORMALIZED_ENTROPY=0.7168397381812985
COMPUTED_MASS_ACCURACY=230.79674240895804
COMPUTED_MASS_ERROR=0.0688651319999849
MONA_RATING=4.545454545454546
NUM_PEAKS=35
COMPOUND_NAME=Tridemorph
SPECTRUM_ID=WA000111
ADDUCT=[M+H]+
MS_LEVEL=MS2
PRECURSOR_MZ=298.38
IONMODE=positive
NOMINAL_MASS=297
PARENT_MASS=297.303164868
RECORD_DATE=2016.01.19 (Created 2007.08.01, modified 2011.05.06)
55.0 0.07107107
57.0 1.0
58.0 0.17617618000000002
68.0 0.01201201
69.0 0.08208208
71.0 0.32132131999999997
73.0 0.19219218999999998
74.0 0.01601602
78.0 0.02402402
80.0 0.03903904
83.0 0.02002002
85.0 0.06706706999999999
87.0 0.035035039999999996
95.0 0.00800801
98.0 0.39239239
100.0 0.02702703
102.0 0.043043040000000005
111.0 0.01201201
116.0 0.06306306
130.0 0.09809810000000001
140.0 0.00800801
164.0 0.00800801
177.0 0.00800801
179.0 0.01601602
180.0 0.00800801
191.0 0.02702703
192.0 0.02002002
203.0 0.02002002
205.0 0.035035039999999996
206.0 0.02002002
208.0 0.043043040000000005
220.0 0.00800801
225.0 0.00800801
249.0 0.11811812
250.0 0.01201201
END IONS

BEGIN IONS
CHARGE=1+
INCHIKEY=YTOPFCCWCSOHFV-UHFFFAOYSA-N
INSTRUMENT_TYPE=LC-ESI-QQ
INSTRUMENT=QuattroPremier XE, Waters
COLLISION_ENERGY=30 V
FORMULA=C19H39NO
SMILES=CCCCCCCCCCCCCN(C1)CC(C)OC(C)1
CAS=81412-43-3
INCHI=InChI=1S/C19H39NO/c1-4-5-6-7-8-9-10-11-12-13-14-15-20-16-18(2)21-19(3)17-20/h18-19H,4-17H2,1-3H3
AUTHOR=Nihon Waters K.K.
LICENSE=CC BY-NC
SPLASH=splash10-0ac1-9320000000-a88bcf8ad2fc6abcd791
SUBMITTER=submitter = Nihon Waters (Nihon Waters K.K.)
SYNON_$=00in-source
COMPUTED_SMILES=O1C(C)CN(CCCCCCCCCCCCC)CC1C
COMPUTED_[2M+H-H2O]+=577.598959736
COMPUTED_[2M+K]+=633.704629736
COMPUTED_[M+H]+=298.311134868
COMPUTED_[2M+NA]+=617.596099736
COMPUTED_[2M+CL]-=630.059329736
COMPUTED_[2M+HAC-H]-=653.650359736
COMPUTED_[M-H20-H]-=278.284774868
COMPUTED_[M-H]-=296.295888868
COMPUTED_[2M-H]-=593.599053736
COMPUTED_[M+NA]+=320.29293486800003
COMPUTED_[M+H-H2O]+=280.29579486800003
COMPUTED_[2M+NH4]+=612.644909736
COMPUTED_[M+CL]-=332.75616486800004
COMPUTED_[M+NH4]+=315.34174486800003
COMPUTED_[M+K]+=336.401464868
COMPUTED_[2M+H]+=595.614299736
COMPUTED_[M+HAC-H]-=356.34719486800003
FIND_PEAK=ignore rel.int. < 5
COMPUTED_SPECTRAL_ENTROPY=2.587768171885926
COMPUTED_NORMALIZED_ENTROPY=0.7278522741320165
COMPUTED_MASS_ACCURACY=230.79674240895804
COMPUTED_MASS_ERROR=0.0688651319999849
MONA_RATING=4.545454545454546
NUM_PEAKS=35
COMPOUND_NAME=Tridemorph
SPECTRUM_ID=WA000110
ADDUCT=[M+H]+
MS_LEVEL=MS2
PRECURSOR_MZ=298.38
IONMODE=positive
NOMINAL_MASS=297
PARENT_MASS=297.303164868
RECORD_DATE=2016.01.19 (Created 2007.08.01, modified 2011.05.06)
55.0 0.04704705
57.0 1.0
58.0 0.11011011
68.0 0.00800801
69.0 0.05105105
71.0 0.61561562
72.0 0.16516517
78.0 0.00800801
80.0 0.03103103
83.0 0.01601602
85.0 0.23523523999999998
86.0 0.01201201
87.0 0.035035039999999996
95.0 0.00800801
98.0 0.6236236199999999
100.0 0.01601602
102.0 0.06306306
112.0 0.07107107
113.0 0.01201201
116.0 0.25925926
117.0 0.00800801
128.0 0.01201201
130.0 0.7807807800000001
131.0 0.01201201
194.0 0.00800801
205.0 0.00800801
207.0 0.01201201
240.0 0.03103103
249.0 0.09809810000000001
250.0 0.02702703
265.0 0.12512513
267.0 0.00800801
281.0 0.03903904
298.0 0.45845846
299.0 0.04704705
END IONS

BEGIN IONS
CHARGE=1+
INCHIKEY=YTOPFCCWCSOHFV-UHFFFAOYSA-N
INSTRUMENT_TYPE=LC-ESI-QQ
INSTRUMENT=QuattroPremier XE, Waters
COLLISION_ENERGY=20 V
FORMULA=C19H39NO
SMILES=CCCCCCCCCCCCCN(C1)CC(C)OC(C)1
CAS=81412-43-3
INCHI=InChI=1S/C19H39NO/c1-4-5-6-7-8-9-10-11-12-13-14-15-20-16-18(2)21-19(3)17-20/h18-19H,4-17H2,1-3H3
AUTHOR=Nihon Waters K.K.
LICENSE=CC BY-NC
SPLASH=splash10-0002-1090000000-2672adc6642cfecc8f43
SUBMITTER=submitter = Nihon Waters (Nihon Waters K.K.)
SYNON_$=00in-source
COMPUTED_SMILES=O1C(C)CN(CCCCCCCCCCCCC)CC1C
COMPUTED_[2M+H-H2O]+=577.598959736
COMPUTED_[2M+K]+=633.704629736
COMPUTED_[M+H]+=298.311134868
COMPUTED_[2M+NA]+=617.596099736
COMPUTED_[2M+CL]-=630.059329736
COMPUTED_[2M+HAC-H]-=653.650359736
COMPUTED_[M-H20-H]-=278.284774868
COMPUTED_[M-H]-=296.295888868
COMPUTED_[2M-H]-=593.599053736
COMPUTED_[M+NA]+=320.29293486800003
COMPUTED_[M+H-H2O]+=280.29579486800003
COMPUTED_[2M+NH4]+=612.644909736
COMPUTED_[M+CL]-=332.75616486800004
COMPUTED_[M+NH4]+=315.34174486800003
COMPUTED_[M+K]+=336.401464868
COMPUTED_[2M+H]+=595.614299736
COMPUTED_[M+HAC-H]-=356.34719486800003
FIND_PEAK=ignore rel.int. < 5
COMPUTED_SPECTRAL_ENTROPY=1.262641079773372
COMPUTED_NORMALIZED_ENTROPY=0.5265622290083819
COMPUTED_MASS_ACCURACY=230.79674240895804
COMPUTED_MASS_ERROR=0.0688651319999849
MONA_RATING=4.545454545454546
NUM_PEAKS=11
COMPOUND_NAME=Tridemorph
SPECTRUM_ID=WA000109
ADDUCT=[M+H]+
MS_LEVEL=MS2
PRECURSOR_MZ=298.38
IONMODE=positive
NOMINAL_MASS=297
PARENT_MASS=297.303164868
RECORD_DATE=2016.01.19 (Created 2007.08.01, modified 2011.05.06)
57.0 0.043043040000000005
71.0 0.03903904
85.0 0.02402402
97.0 0.035035039999999996
115.0 0.02702703
130.0 0.09009009000000001
265.0 0.00800801
281.0 0.10610611
283.0 0.00800801
298.0 1.0
300.0 0.07407407
END IONS

BEGIN IONS
CHARGE=1+
INCHIKEY=YTOPFCCWCSOHFV-UHFFFAOYSA-N
INSTRUMENT_TYPE=LC-ESI-QQ
INSTRUMENT=QuattroPremier XE, Waters
COLLISION_ENERGY=10 V
FORMULA=C19H39NO
SMILES=CCCCCCCCCCCCCN(C1)CC(C)OC(C)1
CAS=81412-43-3
INCHI=InChI=1S/C19H39NO/c1-4-5-6-7-8-9-10-11-12-13-14-15-20-16-18(2)21-19(3)17-20/h18-19H,4-17H2,1-3H3
AUTHOR=Nihon Waters K.K.
LICENSE=CC BY-NC
SPLASH=splash10-0002-0090000000-e12c6cc2bae0f924fc41
SUBMITTER=submitter = Nihon Waters (Nihon Waters K.K.)
SYNON_$=00in-source
COMPUTED_SMILES=O1C(C)CN(CCCCCCCCCCCCC)CC1C
COMPUTED_[2M+H-H2O]+=577.598959736
COMPUTED_[2M+K]+=633.704629736
COMPUTED_[M+H]+=298.311134868
COMPUTED_[2M+NA]+=617.596099736
COMPUTED_[2M+CL]-=630.059329736
COMPUTED_[2M+HAC-H]-=653.650359736
COMPUTED_[M-H20-H]-=278.284774868
COMPUTED_[M-H]-=296.295888868
COMPUTED_[2M-H]-=593.599053736
COMPUTED_[M+NA]+=320.29293486800003
COMPUTED_[M+H-H2O]+=280.29579486800003
COMPUTED_[2M+NH4]+=612.644909736
COMPUTED_[M+CL]-=332.75616486800004
COMPUTED_[M+NH4]+=315.34174486800003
COMPUTED_[M+K]+=336.401464868
COMPUTED_[2M+H]+=595.614299736
COMPUTED_[M+HAC-H]-=356.34719486800003
FIND_PEAK=ignore rel.int. < 5
COMPUTED_SPECTRAL_ENTROPY=0.5379833601052563
COMPUTED_NORMALIZED_ENTROPY=0.38807296285231735
COMPUTED_MASS_ACCURACY=230.79674240895804
COMPUTED_MASS_ERROR=0.0688651319999849
MONA_RATING=4.545454545454546
NUM_PEAKS=4
COMPOUND_NAME=Tridemorph
SPECTRUM_ID=WA000108
ADDUCT=[M+H]+
MS_LEVEL=MS2
PRECURSOR_MZ=298.38
IONMODE=positive
NOMINAL_MASS=297
PARENT_MASS=297.303164868
RECORD_DATE=2016.01.19 (Created 2007.08.01, modified 2011.05.06)
281.0 0.10610611
283.0 0.00800801
298.0 1.0
300.0 0.05905906
END IONS

BEGIN IONS
CHARGE=1+
INCHIKEY=PPDBOQMNKNNODG-NTEUORMPSA-N
INSTRUMENT_TYPE=LC-ESI-QQ
INSTRUMENT=QuattroPremier XE, Waters
COLLISION_ENERGY=40 V
FORMULA=C17H20ClN3O
CAS=131983-72-7
SMILES=Clc(c3)ccc(c3)C=C(C1)C(O)(Cn(c2)ncn2)C(C)(C)C1
INCHI=InChI=1S/C17H20ClN3O/c1-16(2)8-7-14(9-13-3-5-15(18)6-4-13)17(16,22)10-21-12-19-11-20-21/h3-6,9,11-12,22H,7-8,10H2,1-2H3/b14-9+
AUTHOR=Nihon Waters K.K.
LICENSE=CC BY-NC
SPLASH=splash10-00di-9100000000-5a026a042b0adbf49065
SUBMITTER=submitter = Nihon Waters (Nihon Waters K.K.)
SYNON_$=00in-source
COMPUTED_SMILES=CLC1=CC=C(C=C1)C=C2CCC(C)(C)C2(O)CN3N=CN=C3
COMPUTED_[2M+H-H2O]+=617.2516098799999
COMPUTED_[2M+K]+=673.35727988
COMPUTED_[M+H]+=318.13745994
COMPUTED_[2M+NA]+=657.24874988
COMPUTED_[2M+CL]-=669.71197988
COMPUTED_[2M+HAC-H]-=693.30300988
COMPUTED_[M-H20-H]-=298.11109994
COMPUTED_[M-H]-=316.12221394
COMPUTED_[2M-H]-=633.2517038799999
COMPUTED_[M+NA]+=340.11925994
COMPUTED_[M+H-H2O]+=300.12211994
COMPUTED_[2M+NH4]+=652.29755988
COMPUTED_[M+CL]-=352.58248993999996
COMPUTED_[M+NH4]+=335.16806994
COMPUTED_[M+K]+=356.22778994
COMPUTED_[2M+H]+=635.26694988
COMPUTED_[M+HAC-H]-=376.17351994
COMPUTED_SPECTRAL_ENTROPY=0.8603897478660513
FIND_PEAK=ignore rel.int. < 5
COMPUTED_NORMALIZED_ENTROPY=0.33544122240197227
COMPUTED_MASS_ACCURACY=117.7615215339907
COMPUTED_MASS_ERROR=-0.037459939999962444
MONA_RATING=4.545454545454546
NUM_PEAKS=13
COMPOUND_NAME=Triticonazole
SPECTRUM_ID=WA000107
ADDUCT=[M+H]+
MS_LEVEL=MS2
PRECURSOR_MZ=318.1
IONMODE=positive
NOMINAL_MASS=317
PARENT_MASS=317.12948994
RECORD_DATE=2016.01.19 (Created 2007.08.01, modified 2011.05.06)
59.0 0.02702703
70.0 1.0
77.0 0.00800801
125.0 0.1021021
126.0 0.00800801
128.0 0.01201201
129.0 0.00800801
140.0 0.01601602
149.0 0.00800801
153.0 0.00800801
156.0 0.01201201
162.0 0.01201201
175.0 0.01201201
END IONS

BEGIN IONS
CHARGE=1+
INCHIKEY=PPDBOQMNKNNODG-NTEUORMPSA-N
INSTRUMENT_TYPE=LC-ESI-QQ
INSTRUMENT=QuattroPremier XE, Waters
COLLISION_ENERGY=30 V
FORMULA=C17H20ClN3O
SMILES=Clc(c3)ccc(c3)C=C(C1)C(O)(Cn(c2)ncn2)C(C)(C)C1
CAS=131983-72-7
INCHI=InChI=1S/C17H20ClN3O/c1-16(2)8-7-14(9-13-3-5-15(18)6-4-13)17(16,22)10-21-12-19-11-20-21/h3-6,9,11-12,22H,7-8,10H2,1-2H3/b14-9+
AUTHOR=Nihon Waters K.K.
LICENSE=CC BY-NC
SPLASH=splash10-00di-9100000000-caba9a8d30ecd271385e
SUBMITTER=submitter = Nihon Waters (Nihon Waters K.K.)
SYNON_$=00in-source
COMPUTED_SMILES=CLC1=CC=C(C=C1)C=C2CCC(C)(C)C2(O)CN3N=CN=C3
COMPUTED_[2M+H-H2O]+=617.25160988
COMPUTED_[2M+K]+=673.3572798800001
COMPUTED_[M+H]+=318.13745994000004
COMPUTED_[2M+NA]+=657.2487498800001
COMPUTED_[2M+CL]-=669.7119798800001
COMPUTED_[2M+HAC-H]-=693.3030098800001
COMPUTED_[M-H20-H]-=298.11109994000003
COMPUTED_[M-H]-=316.12221394000005
COMPUTED_[2M-H]-=633.25170388
COMPUTED_[M+NA]+=340.11925994000006
COMPUTED_[M+H-H2O]+=300.12211994000006
COMPUTED_[2M+NH4]+=652.2975598800001
COMPUTED_[M+CL]-=352.5824899400001
COMPUTED_[M+NH4]+=335.16806994000007
COMPUTED_[M+K]+=356.22778994000004
COMPUTED_[2M+H]+=635.2669498800001
COMPUTED_[M+HAC-H]-=376.17351994000006
FIND_PEAK=ignore rel.int. < 5
COMPUTED_SPECTRAL_ENTROPY=0.5935253241344972
COMPUTED_NORMALIZED_ENTROPY=0.2854253472569513
COMPUTED_MASS_ACCURACY=117.76152153416939
COMPUTED_MASS_ERROR=-0.03745994000001929
MONA_RATING=4.545454545454546
NUM_PEAKS=8
COMPOUND_NAME=Triticonazole
SPECTRUM_ID=WA000106
ADDUCT=[M+H]+
MS_LEVEL=MS2
PRECURSOR_MZ=318.1
IONMODE=positive
NOMINAL_MASS=317
PARENT_MASS=317.12948994000004
RECORD_DATE=2016.01.19 (Created 2007.08.01, modified 2011.05.06)
59.0 0.02002002
70.0 1.0
71.0 0.00800801
125.0 0.09009009000000001
163.0 0.01201201
175.0 0.00800801
189.0 0.00800801
191.0 0.01201201
END IONS

BEGIN IONS
CHARGE=1+
INCHIKEY=PPDBOQMNKNNODG-NTEUORMPSA-N
INSTRUMENT_TYPE=LC-ESI-QQ
INSTRUMENT=QuattroPremier XE, Waters
COLLISION_ENERGY=20 V
FORMULA=C17H20ClN3O
SMILES=Clc(c3)ccc(c3)C=C(C1)C(O)(Cn(c2)ncn2)C(C)(C)C1
CAS=131983-72-7
INCHI=InChI=1S/C17H20ClN3O/c1-16(2)8-7-14(9-13-3-5-15(18)6-4-13)17(16,22)10-21-12-19-11-20-21/h3-6,9,11-12,22H,7-8,10H2,1-2H3/b14-9+
AUTHOR=Nihon Waters K.K.
LICENSE=CC BY-NC
SPLASH=splash10-00di-9000000000-e6b5607c23f3a6ac5544
SUBMITTER=submitter = Nihon Waters (Nihon Waters K.K.)
SYNON_$=00in-source
COMPUTED_SMILES=CLC1=CC=C(C=C1)C=C2CCC(C)(C)C2(O)CN3N=CN=C3
COMPUTED_[2M+H-H2O]+=617.2516098799999
COMPUTED_[2M+K]+=673.35727988
COMPUTED_[M+H]+=318.13745994
COMPUTED_[2M+NA]+=657.24874988
COMPUTED_[2M+CL]-=669.71197988
COMPUTED_[2M+HAC-H]-=693.30300988
COMPUTED_[M-H20-H]-=298.11109994
COMPUTED_[M-H]-=316.12221394
COMPUTED_[2M-H]-=633.2517038799999
COMPUTED_[M+NA]+=340.11925994
COMPUTED_[M+H-H2O]+=300.12211994
COMPUTED_[2M+NH4]+=652.29755988
COMPUTED_[M+CL]-=352.58248993999996
COMPUTED_[M+NH4]+=335.16806994
COMPUTED_[M+K]+=356.22778994
COMPUTED_[2M+H]+=635.26694988
COMPUTED_[M+HAC-H]-=376.17351994
FIND_PEAK=ignore rel.int. < 5
COMPUTED_SPECTRAL_ENTROPY=0.32357198102945517
COMPUTED_NORMALIZED_ENTROPY=0.2010465756582605
COMPUTED_MASS_ACCURACY=117.7615215339907
COMPUTED_MASS_ERROR=-0.037459939999962444
MONA_RATING=4.545454545454546
NUM_PEAKS=5
COMPOUND_NAME=Triticonazole
SPECTRUM_ID=WA000105
ADDUCT=[M+H]+
MS_LEVEL=MS2
PRECURSOR_MZ=318.1
IONMODE=positive
NOMINAL_MASS=317
PARENT_MASS=317.12948994
RECORD_DATE=2016.01.19 (Created 2007.08.01, modified 2011.05.06)
70.0 1.0
71.0 0.00800801
125.0 0.035035039999999996
191.0 0.02002002
231.0 0.00800801
END IONS

BEGIN IONS
CHARGE=1+
INCHIKEY=PPDBOQMNKNNODG-NTEUORMPSA-N
INSTRUMENT_TYPE=LC-ESI-QQ
INSTRUMENT=QuattroPremier XE, Waters
COLLISION_ENERGY=10 V
FORMULA=C17H20ClN3O
SMILES=Clc(c3)ccc(c3)C=C(C1)C(O)(Cn(c2)ncn2)C(C)(C)C1
CAS=131983-72-7
INCHI=InChI=1S/C17H20ClN3O/c1-16(2)8-7-14(9-13-3-5-15(18)6-4-13)17(16,22)10-21-12-19-11-20-21/h3-6,9,11-12,22H,7-8,10H2,1-2H3/b14-9+
AUTHOR=Nihon Waters K.K.
LICENSE=CC BY-NC
SPLASH=splash10-01b9-5009000000-05cc20f35f1ee9ccb950
SUBMITTER=submitter = Nihon Waters (Nihon Waters K.K.)
SYNON_$=00in-source
COMPUTED_SMILES=CLC1=CC=C(C=C1)C=C2CCC(C)(C)C2(O)CN3N=CN=C3
COMPUTED_[2M+H-H2O]+=617.2516098799999
COMPUTED_[2M+K]+=673.35727988
COMPUTED_[M+H]+=318.13745994
COMPUTED_[2M+NA]+=657.24874988
COMPUTED_[2M+CL]-=669.71197988
COMPUTED_[2M+HAC-H]-=693.30300988
COMPUTED_[M-H20-H]-=298.11109994
COMPUTED_[M-H]-=316.12221394
COMPUTED_[2M-H]-=633.2517038799999
COMPUTED_[M+NA]+=340.11925994
COMPUTED_[M+H-H2O]+=300.12211994
COMPUTED_[2M+NH4]+=652.29755988
COMPUTED_[M+CL]-=352.58248993999996
COMPUTED_[M+NH4]+=335.16806994
COMPUTED_[M+K]+=356.22778994
COMPUTED_[2M+H]+=635.26694988
COMPUTED_[M+HAC-H]-=376.17351994
FIND_PEAK=ignore rel.int. < 5
COMPUTED_SPECTRAL_ENTROPY=0.792107361707046
COMPUTED_NORMALIZED_ENTROPY=0.5713846812931979
COMPUTED_MASS_ACCURACY=117.7615215339907
COMPUTED_MASS_ERROR=-0.037459939999962444
MONA_RATING=4.545454545454546
NUM_PEAKS=4
COMPOUND_NAME=Triticonazole
SPECTRUM_ID=WA000104
ADDUCT=[M+H]+
MS_LEVEL=MS2
PRECURSOR_MZ=318.1
IONMODE=positive
NOMINAL_MASS=317
PARENT_MASS=317.12948994
RECORD_DATE=2016.01.19 (Created 2007.08.01, modified 2011.05.06)
70.0 0.65865866
249.0 0.00800801
318.0 1.0
319.0 0.03903904
END IONS

BEGIN IONS
CHARGE=1+
INCHIKEY=SOTLWPHEAQOHHC-SILNSSARSA-N
INSTRUMENT_TYPE=LC-ESI-QQ
INSTRUMENT=QuattroPremier XE, Waters
COLLISION_ENERGY=40 V
FORMULA=C20H27NO3
SMILES=CCONC(CC)=C(C(=O)2)C(=O)CC(C2)c(c(C)1)c(C)cc(C)c1
CAS=87820-88-0
INCHI=InChI=1S/C20H27NO3/c1-6-16(21-24-7-2)20-17(22)10-15(11-18(20)23)19-13(4)8-12(3)9-14(19)5/h8-9,15,21H,6-7,10-11H2,1-5H3/b20-16-
AUTHOR=Nihon Waters K.K.
LICENSE=CC BY-NC
SPLASH=splash10-006t-9300000000-aaab6480641d5b461a2f
SUBMITTER=submitter = Nihon Waters (Nihon Waters K.K.)
SYNON_$=00in-source
COMPUTED_SMILES=O=C1C(C(=O)CC(C=2C(=CC(=CC2C)C)C)C1)=C(NOCC)CC
COMPUTED_[2M+H-H2O]+=641.390817448
COMPUTED_[2M+K]+=697.496487448
COMPUTED_[M+H]+=330.207063724
COMPUTED_[2M+NA]+=681.3879574480001
COMPUTED_[2M+CL]-=693.851187448
COMPUTED_[2M+HAC-H]-=717.4422174480001
COMPUTED_[M-H20-H]-=310.180703724
COMPUTED_[M-H]-=328.19181772400003
COMPUTED_[2M-H]-=657.390911448
COMPUTED_[M+NA]+=352.18886372400004
COMPUTED_[M+H-H2O]+=312.19172372400004
COMPUTED_[2M+NH4]+=676.4367674480001
COMPUTED_[M+CL]-=364.652093724
COMPUTED_[M+NH4]+=347.23767372400005
COMPUTED_[M+K]+=368.297393724
COMPUTED_[2M+H]+=659.406157448
COMPUTED_[M+HAC-H]-=388.24312372400004
FIND_PEAK=ignore rel.int. < 5
COMPUTED_SPECTRAL_ENTROPY=3.1087087710214196
COMPUTED_NORMALIZED_ENTROPY=0.7317199605764093
COMPUTED_MASS_ACCURACY=281.3692885255495
COMPUTED_MASS_ERROR=0.092936275999989
MONA_RATING=4.166666666666666
NUM_PEAKS=70
COMPOUND_NAME=Tralkoxydim (isomer2)
SPECTRUM_ID=WA000103
ADDUCT=[M+H]+
MS_LEVEL=MS2
PRECURSOR_MZ=330.3
IONMODE=positive
NOMINAL_MASS=329
PARENT_MASS=329.199093724
RECORD_DATE=2016.01.19 (Created 2007.08.01, modified 2011.05.06)
52.0 0.00800801
54.0 0.05105105
55.0 0.09809810000000001
65.0 0.02702703
66.0 0.02402402
67.0 0.48648649
69.0 0.04704705
72.0 0.8548548499999999
73.0 0.00800801
77.0 0.02702703
79.0 0.03903904
80.0 0.00800801
82.0 0.17617618000000002
84.0 0.03103103
85.0 0.01201201
91.0 0.07107107
93.0 0.15315315
96.0 1.0
97.0 0.6546546499999999
99.0 0.00800801
102.0 0.00800801
105.0 0.13313313000000002
106.0 0.01201201
107.0 0.04704705
110.0 0.16516517
111.0 0.043043040000000005
113.0 0.00800801
115.0 0.01201201
117.0 0.03103103
118.0 0.01201201
119.0 0.05105105
122.0 0.07407407
124.0 0.02402402
126.0 0.00800801
128.0 0.02002002
129.0 0.06706706999999999
131.0 0.00800801
133.0 0.16116116000000003
135.0 0.07107107
136.0 0.01201201
138.0 0.13713714
139.0 0.00800801
143.0 0.02402402
145.0 0.06706706999999999
147.0 0.02402402
149.0 0.02402402
152.0 0.04704705
154.0 0.01201201
155.0 0.02402402
158.0 0.01601602
164.0 0.01601602
166.0 0.02002002
167.0 0.00800801
169.0 0.02002002
171.0 0.01201201
173.0 0.01601602
179.0 0.02002002
181.0 0.02402402
183.0 0.00800801
186.0 0.00800801
192.0 0.02702703
194.0 0.02402402
195.0 0.01601602
197.0 0.00800801
207.0 0.02702703
209.0 0.02402402
210.0 0.01201201
224.0 0.01601602
226.0 0.00800801
235.0 0.00800801
END IONS

BEGIN IONS
CHARGE=1+
INCHIKEY=SOTLWPHEAQOHHC-SILNSSARSA-N
INSTRUMENT_TYPE=LC-ESI-QQ
INSTRUMENT=QuattroPremier XE, Waters
COLLISION_ENERGY=30 V
FORMULA=C20H27NO3
CAS=87820-88-0
SMILES=CCONC(CC)=C(C(=O)2)C(=O)CC(C2)c(c(C)1)c(C)cc(C)c1
INCHI=InChI=1S/C20H27NO3/c1-6-16(21-24-7-2)20-17(22)10-15(11-18(20)23)19-13(4)8-12(3)9-14(19)5/h8-9,15,21H,6-7,10-11H2,1-5H3/b20-16-
AUTHOR=Nihon Waters K.K.
LICENSE=CC BY-NC
SPLASH=splash10-0002-9600000000-81e0792d821b8ff74563
SUBMITTER=submitter = Nihon Waters (Nihon Waters K.K.)
SYNON_$=00in-source
COMPUTED_SMILES=O=C1C(C(=O)CC(C=2C(=CC(=CC2C)C)C)C1)=C(NOCC)CC
COMPUTED_[2M+H-H2O]+=641.390817448
COMPUTED_[2M+K]+=697.496487448
COMPUTED_[M+H]+=330.207063724
COMPUTED_[2M+NA]+=681.3879574480001
COMPUTED_[2M+CL]-=693.851187448
COMPUTED_[2M+HAC-H]-=717.4422174480001
COMPUTED_[M-H20-H]-=310.180703724
COMPUTED_[M-H]-=328.19181772400003
COMPUTED_[2M-H]-=657.390911448
COMPUTED_[M+NA]+=352.18886372400004
COMPUTED_[M+H-H2O]+=312.19172372400004
COMPUTED_[2M+NH4]+=676.4367674480001
COMPUTED_[M+CL]-=364.652093724
COMPUTED_[M+NH4]+=347.23767372400005
COMPUTED_[M+K]+=368.297393724
COMPUTED_[2M+H]+=659.406157448
COMPUTED_[M+HAC-H]-=388.24312372400004
FIND_PEAK=ignore rel.int. < 5
COMPUTED_SPECTRAL_ENTROPY=3.010415095361068
COMPUTED_NORMALIZED_ENTROPY=0.7159655575006374
COMPUTED_MASS_ACCURACY=281.3692885255495
COMPUTED_MASS_ERROR=0.092936275999989
MONA_RATING=4.166666666666666
NUM_PEAKS=67
COMPOUND_NAME=Tralkoxydim (isomer2)
SPECTRUM_ID=WA000102
ADDUCT=[M+H]+
MS_LEVEL=MS2
PRECURSOR_MZ=330.3
IONMODE=positive
NOMINAL_MASS=329
PARENT_MASS=329.199093724
RECORD_DATE=2016.01.19 (Created 2007.08.01, modified 2011.05.06)
53.0 0.00800801
55.0 0.02402402
56.0 0.00800801
64.0 0.00800801
67.0 0.2042042
68.0 0.055055059999999996
70.0 0.01201201
72.0 0.48648649
73.0 0.00800801
77.0 0.00800801
79.0 0.00800801
82.0 0.13713714
83.0 0.01201201
84.0 0.02702703
91.0 0.02002002
93.0 0.06306306
95.0 1.0
98.0 0.48648649
99.0 0.00800801
104.0 0.03903904
107.0 0.03103103
110.0 0.17617618000000002
111.0 0.02702703
113.0 0.02402402
116.0 0.00800801
118.0 0.01601602
120.0 0.06706706999999999
121.0 0.15715716000000002
123.0 0.035035039999999996
126.0 0.00800801
130.0 0.01601602
133.0 0.10610611
134.0 0.01201201
135.0 0.06706706999999999
138.0 0.55655656
139.0 0.043043040000000005
143.0 0.00800801
145.0 0.06306306
147.0 0.02402402
149.0 0.01601602
152.0 0.09409409
153.0 0.00800801
156.0 0.01201201
158.0 0.01201201
164.0 0.035035039999999996
166.0 0.043043040000000005
169.0 0.00800801
170.0 0.02002002
173.0 0.02702703
181.0 0.00800801
183.0 0.00800801
186.0 0.00800801
194.0 0.00800801
197.0 0.00800801
207.0 0.02402402
209.0 0.01601602
210.0 0.00800801
213.0 0.00800801
224.0 0.01601602
226.0 0.01201201
228.0 0.00800801
235.0 0.00800801
242.0 0.00800801
250.0 0.00800801
252.0 0.01601602
267.0 0.01201201
284.0 0.00800801
END IONS

BEGIN IONS
CHARGE=1+
INCHIKEY=SOTLWPHEAQOHHC-SILNSSARSA-N
INSTRUMENT_TYPE=LC-ESI-QQ
INSTRUMENT=QuattroPremier XE, Waters
COLLISION_ENERGY=20 V
FORMULA=C20H27NO3
CAS=87820-88-0
SMILES=CCONC(CC)=C(C(=O)2)C(=O)CC(C2)c(c(C)1)c(C)cc(C)c1
INCHI=InChI=1S/C20H27NO3/c1-6-16(21-24-7-2)20-17(22)10-15(11-18(20)23)19-13(4)8-12(3)9-14(19)5/h8-9,15,21H,6-7,10-11H2,1-5H3/b20-16-
AUTHOR=Nihon Waters K.K.
LICENSE=CC BY-NC
SPLASH=splash10-000i-2920000000-692e97c639a157046715
SUBMITTER=submitter = Nihon Waters (Nihon Waters K.K.)
SYNON_$=00in-source
COMPUTED_SMILES=O=C1C(C(=O)CC(C=2C(=CC(=CC2C)C)C)C1)=C(NOCC)CC
COMPUTED_[2M+H-H2O]+=641.390817448
COMPUTED_[2M+K]+=697.496487448
COMPUTED_[M+H]+=330.207063724
COMPUTED_[2M+NA]+=681.3879574480001
COMPUTED_[2M+CL]-=693.851187448
COMPUTED_[2M+HAC-H]-=717.4422174480001
COMPUTED_[M-H20-H]-=310.180703724
COMPUTED_[M-H]-=328.19181772400003
COMPUTED_[2M-H]-=657.390911448
COMPUTED_[M+NA]+=352.18886372400004
COMPUTED_[M+H-H2O]+=312.19172372400004
COMPUTED_[2M+NH4]+=676.4367674480001
COMPUTED_[M+CL]-=364.652093724
COMPUTED_[M+NH4]+=347.23767372400005
COMPUTED_[M+K]+=368.297393724
COMPUTED_[2M+H]+=659.406157448
COMPUTED_[M+HAC-H]-=388.24312372400004
FIND_PEAK=ignore rel.int. < 5
COMPUTED_SPECTRAL_ENTROPY=2.8203408905056033
COMPUTED_NORMALIZED_ENTROPY=0.7594684685919069
COMPUTED_MASS_ACCURACY=281.3692885255495
COMPUTED_MASS_ERROR=0.092936275999989
MONA_RATING=4.166666666666666
NUM_PEAKS=41
COMPOUND_NAME=Tralkoxydim (isomer2)
SPECTRUM_ID=WA000101
ADDUCT=[M+H]+
MS_LEVEL=MS2
PRECURSOR_MZ=330.3
IONMODE=positive
NOMINAL_MASS=329
PARENT_MASS=329.199093724
RECORD_DATE=2016.01.19 (Created 2007.08.01, modified 2011.05.06)
67.0 0.035035039999999996
69.0 0.00800801
71.0 0.06706706999999999
82.0 0.04704705
84.0 0.01201201
94.0 0.01601602
95.0 0.28228228
98.0 0.18018018000000002
108.0 0.01201201
110.0 0.09809810000000001
113.0 0.04704705
120.0 0.04704705
121.0 0.24324324
123.0 0.02702703
133.0 0.05905906
136.0 0.08608608999999999
138.0 1.0
140.0 0.15315315
145.0 0.02702703
147.0 0.02002002
148.0 0.00800801
152.0 0.09409409
164.0 0.15715716000000002
165.0 0.06306306
173.0 0.05105105
197.0 0.00800801
209.0 0.00800801
215.0 0.00800801
224.0 0.01201201
226.0 0.02702703
228.0 0.01201201
239.0 0.01201201
242.0 0.01601602
250.0 0.00800801
252.0 0.01201201
256.0 0.02702703
267.0 0.1021021
269.0 0.01201201
270.0 0.00800801
284.0 0.27027027
285.0 0.04704705
END IONS

BEGIN IONS
CHARGE=1+
INCHIKEY=SOTLWPHEAQOHHC-SILNSSARSA-N
INSTRUMENT_TYPE=LC-ESI-QQ
INSTRUMENT=QuattroPremier XE, Waters
COLLISION_ENERGY=10 V
FORMULA=C20H27NO3
SMILES=CCONC(CC)=C(C(=O)2)C(=O)CC(C2)c(c(C)1)c(C)cc(C)c1
CAS=87820-88-0
INCHI=InChI=1S/C20H27NO3/c1-6-16(21-24-7-2)20-17(22)10-15(11-18(20)23)19-13(4)8-12(3)9-14(19)5/h8-9,15,21H,6-7,10-11H2,1-5H3/b20-16-
AUTHOR=Nihon Waters K.K.
LICENSE=CC BY-NC
SPLASH=splash10-001i-0169000000-af40a15e17a0a48af7c9
SUBMITTER=submitter = Nihon Waters (Nihon Waters K.K.)
SYNON_$=00in-source
COMPUTED_SMILES=O=C1C(C(=O)CC(C=2C(=CC(=CC2C)C)C)C1)=C(NOCC)CC
COMPUTED_[2M+H-H2O]+=641.390817448
COMPUTED_[2M+K]+=697.496487448
COMPUTED_[M+H]+=330.207063724
COMPUTED_[2M+NA]+=681.3879574480001
COMPUTED_[2M+CL]-=693.851187448
COMPUTED_[2M+HAC-H]-=717.4422174480001
COMPUTED_[M-H20-H]-=310.180703724
COMPUTED_[M-H]-=328.19181772400003
COMPUTED_[2M-H]-=657.390911448
COMPUTED_[M+NA]+=352.18886372400004
COMPUTED_[M+H-H2O]+=312.19172372400004
COMPUTED_[2M+NH4]+=676.4367674480001
COMPUTED_[M+CL]-=364.652093724
COMPUTED_[M+NH4]+=347.23767372400005
COMPUTED_[M+K]+=368.297393724
COMPUTED_[2M+H]+=659.406157448
COMPUTED_[M+HAC-H]-=388.24312372400004
FIND_PEAK=ignore rel.int. < 5
COMPUTED_SPECTRAL_ENTROPY=1.391528619686876
COMPUTED_NORMALIZED_ENTROPY=0.5425169957601172
COMPUTED_MASS_ACCURACY=281.3692885255495
COMPUTED_MASS_ERROR=0.092936275999989
MONA_RATING=4.166666666666666
NUM_PEAKS=13
COMPOUND_NAME=Tralkoxydim (isomer2)
SPECTRUM_ID=WA000100
ADDUCT=[M+H]+
MS_LEVEL=MS2
PRECURSOR_MZ=330.3
IONMODE=positive
NOMINAL_MASS=329
PARENT_MASS=329.199093724
RECORD_DATE=2016.01.19 (Created 2007.08.01, modified 2011.05.06)
96.0 0.00800801
121.0 0.01201201
136.0 0.00800801
138.0 0.05905906
140.0 0.02702703
164.0 0.03903904
166.0 0.02002002
256.0 0.00800801
267.0 0.00800801
284.0 0.5885885900000001
286.0 0.12512513
330.0 1.0
331.0 0.055055059999999996
END IONS

BEGIN IONS
CHARGE=1+
INCHIKEY=NWWZPOKUUAIXIW-FLIBITNWSA-N
INSTRUMENT_TYPE=LC-ESI-QQ
INSTRUMENT=QuattroPremier XE, Waters
COLLISION_ENERGY=40 V
FORMULA=C8H10ClN5O3S
SMILES=O=N(=O)N=C(N(C)2)N(COC2)Cc(c1)sc(Cl)n1
CAS=153719-23-4
INCHI=InChI=1S/C8H10ClN5O3S/c1-12-4-17-5-13(8(12)11-14(15)16)3-6-2-10-7(9)18-6/h2H,3-5H2,1H3/b11-8-
AUTHOR=Nihon Waters K.K.
LICENSE=CC BY-NC
SPLASH=splash10-053r-0900000000-3561fe43a82b46ff6679
SUBMITTER=submitter = Nihon Waters (Nihon Waters K.K.)
SYNON_$=00in-source
COMPUTED_SMILES=O=N(=O)N=C1N(C)COCN1CC=2SC(CL)=NC2
COMPUTED_[2M+H-H2O]+=565.0312057199999
COMPUTED_[2M+K]+=621.1368757199999
COMPUTED_[M+H]+=292.02725785999996
COMPUTED_[2M+NA]+=605.02834572
COMPUTED_[2M+CL]-=617.4915757199999
COMPUTED_[2M+HAC-H]-=641.08260572
COMPUTED_[M-H20-H]-=272.00089785999995
COMPUTED_[M-H]-=290.01201186
COMPUTED_[2M-H]-=581.0312997199999
COMPUTED_[M+NA]+=314.00905786
COMPUTED_[M+H-H2O]+=274.01191786
COMPUTED_[2M+NH4]+=600.07715572
COMPUTED_[M+CL]-=326.47228785999994
COMPUTED_[M+NH4]+=309.05786786
COMPUTED_[M+K]+=330.11758785999996
COMPUTED_[2M+H]+=583.0465457199999
COMPUTED_[M+HAC-H]-=350.06331786
FIND_PEAK=ignore rel.int. < 5
COMPUTED_SPECTRAL_ENTROPY=1.9836744987745805
COMPUTED_NORMALIZED_ENTROPY=0.6417493543705242
COMPUTED_MASS_ACCURACY=112.10758063424962
COMPUTED_MASS_ERROR=0.032742140000038944
MONA_RATING=4.545454545454546
NUM_PEAKS=22
COMPOUND_NAME=Thiamethoxam
SPECTRUM_ID=WA000093
ADDUCT=[M+H]+
MS_LEVEL=MS2
PRECURSOR_MZ=292.06
IONMODE=positive
NOMINAL_MASS=291
PARENT_MASS=291.01928785999996
RECORD_DATE=2016.01.19 (Created 2007.08.01, modified 2011.05.06)
106.0 0.01201201
108.0 0.50950951
109.0 0.03103103
112.0 0.06306306
113.0 0.01201201
118.0 0.02702703
120.0 0.00800801
122.0 0.14914915
123.0 0.03103103
124.0 0.14514515
126.0 0.00800801
131.0 1.0
133.0 0.02002002
138.0 0.055055059999999996
139.0 0.01201201
146.0 0.01601602
150.0 0.02002002
152.0 0.2982983
153.0 0.01201201
165.0 0.01601602
175.0 0.00800801
181.0 0.043043040000000005
END IONS

BEGIN IONS
CHARGE=1+
INCHIKEY=NWWZPOKUUAIXIW-FLIBITNWSA-N
INSTRUMENT_TYPE=LC-ESI-QQ
INSTRUMENT=QuattroPremier XE, Waters
COLLISION_ENERGY=30 V
FORMULA=C8H10ClN5O3S
SMILES=O=N(=O)N=C(N(C)2)N(COC2)Cc(c1)sc(Cl)n1
CAS=153719-23-4
INCHI=InChI=1S/C8H10ClN5O3S/c1-12-4-17-5-13(8(12)11-14(15)16)3-6-2-10-7(9)18-6/h2H,3-5H2,1H3/b11-8-
AUTHOR=Nihon Waters K.K.
LICENSE=CC BY-NC
SPLASH=splash10-001i-0900000000-aa0eb498dbbc05ade04e
SUBMITTER=submitter = Nihon Waters (Nihon Waters K.K.)
SYNON_$=00in-source
COMPUTED_SMILES=O=N(=O)N=C1N(C)COCN1CC=2SC(CL)=NC2
COMPUTED_[2M+H-H2O]+=565.0312057199999
COMPUTED_[2M+K]+=621.1368757199999
COMPUTED_[M+H]+=292.02725785999996
COMPUTED_[2M+NA]+=605.02834572
COMPUTED_[2M+CL]-=617.4915757199999
COMPUTED_[2M+HAC-H]-=641.08260572
COMPUTED_[M-H20-H]-=272.00089785999995
COMPUTED_[M-H]-=290.01201186
COMPUTED_[2M-H]-=581.0312997199999
COMPUTED_[M+NA]+=314.00905786
COMPUTED_[M+H-H2O]+=274.01191786
COMPUTED_[2M+NH4]+=600.07715572
COMPUTED_[M+CL]-=326.47228785999994
COMPUTED_[M+NH4]+=309.05786786
COMPUTED_[M+K]+=330.11758785999996
COMPUTED_[2M+H]+=583.0465457199999
COMPUTED_[M+HAC-H]-=350.06331786
FIND_PEAK=ignore rel.int. < 5
COMPUTED_SPECTRAL_ENTROPY=2.0335183636109035
COMPUTED_NORMALIZED_ENTROPY=0.6317479996899749
COMPUTED_MASS_ACCURACY=112.10758063424962
COMPUTED_MASS_ERROR=0.032742140000038944
MONA_RATING=4.545454545454546
NUM_PEAKS=25
COMPOUND_NAME=Thiamethoxam
SPECTRUM_ID=WA000092
ADDUCT=[M+H]+
MS_LEVEL=MS2
PRECURSOR_MZ=292.06
IONMODE=positive
NOMINAL_MASS=291
PARENT_MASS=291.01928785999996
RECORD_DATE=2016.01.19 (Created 2007.08.01, modified 2011.05.06)
108.0 0.1021021
112.0 0.035035039999999996
118.0 0.00800801
122.0 0.18818819
123.0 0.02002002
125.0 0.08608608999999999
126.0 0.00800801
129.0 0.01201201
132.0 1.0
133.0 0.02702703
137.0 0.01201201
138.0 0.043043040000000005
145.0 0.00800801
146.0 0.02402402
150.0 0.01601602
152.0 0.2982983
153.0 0.02002002
161.0 0.00800801
165.0 0.00800801
172.0 0.00800801
175.0 0.02402402
179.0 0.01201201
181.0 0.36036036000000005
182.0 0.01201201
211.0 0.02402402
END IONS

BEGIN IONS
CHARGE=1+
INCHIKEY=NWWZPOKUUAIXIW-FLIBITNWSA-N
INSTRUMENT_TYPE=LC-ESI-QQ
INSTRUMENT=QuattroPremier XE, Waters
COLLISION_ENERGY=20 V
FORMULA=C8H10ClN5O3S
SMILES=O=N(=O)N=C(N(C)2)N(COC2)Cc(c1)sc(Cl)n1
CAS=153719-23-4
INCHI=InChI=1S/C8H10ClN5O3S/c1-12-4-17-5-13(8(12)11-14(15)16)3-6-2-10-7(9)18-6/h2H,3-5H2,1H3/b11-8-
LICENSE=CC BY-NC
AUTHOR=Nihon Waters K.K.
SPLASH=splash10-001i-0930000000-6f7828f366242966edc6
SUBMITTER=submitter = Nihon Waters (Nihon Waters K.K.)
SYNON_$=00in-source
COMPUTED_SMILES=O=N(=O)N=C1N(C)COCN1CC=2SC(CL)=NC2
COMPUTED_[2M+H-H2O]+=565.0312057199999
COMPUTED_[2M+K]+=621.1368757199999
COMPUTED_[M+H]+=292.02725785999996
COMPUTED_[2M+NA]+=605.02834572
COMPUTED_[2M+CL]-=617.4915757199999
COMPUTED_[2M+HAC-H]-=641.08260572
COMPUTED_[M-H20-H]-=272.00089785999995
COMPUTED_[M-H]-=290.01201186
COMPUTED_[2M-H]-=581.0312997199999
COMPUTED_[M+NA]+=314.00905786
COMPUTED_[M+H-H2O]+=274.01191786
COMPUTED_[2M+NH4]+=600.07715572
COMPUTED_[M+CL]-=326.47228785999994
COMPUTED_[M+NH4]+=309.05786786
COMPUTED_[M+K]+=330.11758785999996
COMPUTED_[2M+H]+=583.0465457199999
COMPUTED_[M+HAC-H]-=350.06331786
FIND_PEAK=ignore rel.int. < 5
COMPUTED_SPECTRAL_ENTROPY=1.8116455417253694
COMPUTED_NORMALIZED_ENTROPY=0.5628193320565725
COMPUTED_MASS_ACCURACY=112.10758063424962
COMPUTED_MASS_ERROR=0.032742140000038944
MONA_RATING=4.545454545454546
NUM_PEAKS=25
COMPOUND_NAME=Thiamethoxam
SPECTRUM_ID=WA000091
ADDUCT=[M+H]+
MS_LEVEL=MS2
PRECURSOR_MZ=292.06
IONMODE=positive
NOMINAL_MASS=291
PARENT_MASS=291.01928785999996
RECORD_DATE=2016.01.19 (Created 2007.08.01, modified 2011.05.06)
101.0 0.00800801
122.0 0.09409409
123.0 0.00800801
125.0 0.01201201
129.0 0.02702703
131.0 1.0
133.0 0.01601602
138.0 0.03103103
144.0 0.00800801
147.0 0.01201201
151.0 0.06306306
155.0 0.00800801
161.0 0.01601602
173.0 0.00800801
175.0 0.055055059999999996
179.0 0.03903904
181.0 0.78778779
182.0 0.01601602
185.0 0.00800801
187.0 0.01201201
209.0 0.02002002
211.0 0.7487487500000001
212.0 0.02402402
215.0 0.00800801
245.0 0.00800801
END IONS

BEGIN IONS
CHARGE=1+
INCHIKEY=NWWZPOKUUAIXIW-FLIBITNWSA-N
INSTRUMENT_TYPE=LC-ESI-QQ
INSTRUMENT=QuattroPremier XE, Waters
COLLISION_ENERGY=10 V
FORMULA=C8H10ClN5O3S
SMILES=O=N(=O)N=C(N(C)2)N(COC2)Cc(c1)sc(Cl)n1
CAS=153719-23-4
INCHI=InChI=1S/C8H10ClN5O3S/c1-12-4-17-5-13(8(12)11-14(15)16)3-6-2-10-7(9)18-6/h2H,3-5H2,1H3/b11-8-
AUTHOR=Nihon Waters K.K.
LICENSE=CC BY-NC
SPLASH=splash10-01ox-0090000000-e1505fabdeca113ff5be
SUBMITTER=submitter = Nihon Waters (Nihon Waters K.K.)
SYNON_$=00in-source
COMPUTED_SMILES=O=N(=O)N=C1N(C)COCN1CC=2SC(CL)=NC2
COMPUTED_[2M+H-H2O]+=565.0312057199999
COMPUTED_[2M+K]+=621.1368757199999
COMPUTED_[M+H]+=292.02725785999996
COMPUTED_[2M+NA]+=605.02834572
COMPUTED_[2M+CL]-=617.4915757199999
COMPUTED_[2M+HAC-H]-=641.08260572
COMPUTED_[M-H20-H]-=272.00089785999995
COMPUTED_[M-H]-=290.01201186
COMPUTED_[2M-H]-=581.0312997199999
COMPUTED_[M+NA]+=314.00905786
COMPUTED_[M+H-H2O]+=274.01191786
COMPUTED_[2M+NH4]+=600.07715572
COMPUTED_[M+CL]-=326.47228785999994
COMPUTED_[M+NH4]+=309.05786786
COMPUTED_[M+K]+=330.11758785999996
COMPUTED_[2M+H]+=583.0465457199999
COMPUTED_[M+HAC-H]-=350.06331786
FIND_PEAK=ignore rel.int. < 5
COMPUTED_SPECTRAL_ENTROPY=1.2546646337907528
COMPUTED_NORMALIZED_ENTROPY=0.5710224829688695
COMPUTED_MASS_ACCURACY=112.10758063424962
COMPUTED_MASS_ERROR=0.032742140000038944
MONA_RATING=4.545454545454546
NUM_PEAKS=9
COMPOUND_NAME=Thiamethoxam
SPECTRUM_ID=WA000090
ADDUCT=[M+H]+
MS_LEVEL=MS2
PRECURSOR_MZ=292.06
IONMODE=positive
NOMINAL_MASS=291
PARENT_MASS=291.01928785999996
RECORD_DATE=2016.01.19 (Created 2007.08.01, modified 2011.05.06)
132.0 0.06706706999999999
209.0 0.02702703
211.0 0.63163163
212.0 0.01201201
246.0 0.16116116000000003
248.0 0.02002002
262.0 0.00800801
292.0 1.0
293.0 0.03103103
END IONS

BEGIN IONS
CHARGE=1+
INCHIKEY=HOKKPVIRMVDYPB-UVTDQMKNSA-N
INSTRUMENT_TYPE=LC-ESI-QQ
INSTRUMENT=QuattroPremier XE, Waters
COLLISION_ENERGY=50 V
FORMULA=C10H9ClN4S
SMILES=N#CN=C(S2)N(CC2)Cc(c1)cnc(Cl)c1
CAS=111988-49-9
INCHI=InChI=1S/C10H9ClN4S/c11-9-2-1-8(5-13-9)6-15-3-4-16-10(15)14-7-12/h1-2,5H,3-4,6H2/b14-10-
AUTHOR=Nihon Waters K.K.
LICENSE=CC BY-NC
SPLASH=splash10-006w-9100000000-3b95024c902ddb89937d
SUBMITTER=submitter = Nihon Waters (Nihon Waters K.K.)
SYNON_$=00in-source
COMPUTED_SMILES=N#CN=C1SCCN1CC2=CN=C(CL)C=C2
COMPUTED_[2M+H-H2O]+=487.039919936
COMPUTED_[2M+K]+=543.145589936
COMPUTED_[M+H]+=253.03161496799999
COMPUTED_[2M+NA]+=527.037059936
COMPUTED_[2M+CL]-=539.500289936
COMPUTED_[2M+HAC-H]-=563.091319936
COMPUTED_[M-H20-H]-=233.00525496799997
COMPUTED_[M-H]-=251.016368968
COMPUTED_[2M-H]-=503.040013936
COMPUTED_[M+NA]+=275.013414968
COMPUTED_[M+H-H2O]+=235.01627496799998
COMPUTED_[2M+NH4]+=522.085869936
COMPUTED_[M+CL]-=287.47664496799996
COMPUTED_[M+NH4]+=270.062224968
COMPUTED_[M+K]+=291.121944968
COMPUTED_[2M+H]+=505.05525993599997
COMPUTED_[M+HAC-H]-=311.067674968
FIND_PEAK=ignore rel.int. < 5
COMPUTED_SPECTRAL_ENTROPY=1.6810080318447462
COMPUTED_NORMALIZED_ENTROPY=0.7650597254299318
COMPUTED_MASS_ACCURACY=124.96034782602891
COMPUTED_MASS_ERROR=-0.03161496799998531
MONA_RATING=4.545454545454546
NUM_PEAKS=9
COMPOUND_NAME=Thiacloprid
SPECTRUM_ID=WA000085
ADDUCT=[M+H]+
MS_LEVEL=MS2
PRECURSOR_MZ=253.0
IONMODE=positive
NOMINAL_MASS=252
PARENT_MASS=252.02364496799999
RECORD_DATE=2016.01.19 (Created 2007.08.01, modified 2011.05.06)
63.0 0.21921922
64.0 0.06706706999999999
72.0 0.6426426399999999
74.0 0.01201201
90.0 0.91791792
91.0 0.09809810000000001
99.0 1.0
100.0 0.02002002
126.0 0.33333333000000004
END IONS

BEGIN IONS
CHARGE=1+
INCHIKEY=HOKKPVIRMVDYPB-UVTDQMKNSA-N
INSTRUMENT_TYPE=LC-ESI-QQ
INSTRUMENT=QuattroPremier XE, Waters
COLLISION_ENERGY=40 V
FORMULA=C10H9ClN4S
SMILES=N#CN=C(S2)N(CC2)Cc(c1)cnc(Cl)c1
CAS=111988-49-9
INCHI=InChI=1S/C10H9ClN4S/c11-9-2-1-8(5-13-9)6-15-3-4-16-10(15)14-7-12/h1-2,5H,3-4,6H2/b14-10-
AUTHOR=Nihon Waters K.K.
LICENSE=CC BY-NC
SPLASH=splash10-004m-9400000000-ad42693e2f71278991b0
SUBMITTER=submitter = Nihon Waters (Nihon Waters K.K.)
SYNON_$=00in-source
COMPUTED_SMILES=N#CN=C1SCCN1CC2=CN=C(CL)C=C2
COMPUTED_[2M+H-H2O]+=487.039919936
COMPUTED_[2M+K]+=543.145589936
COMPUTED_[M+H]+=253.03161496799999
COMPUTED_[2M+NA]+=527.037059936
COMPUTED_[2M+CL]-=539.500289936
COMPUTED_[2M+HAC-H]-=563.091319936
COMPUTED_[M-H20-H]-=233.00525496799997
COMPUTED_[M-H]-=251.016368968
COMPUTED_[2M-H]-=503.040013936
COMPUTED_[M+NA]+=275.013414968
COMPUTED_[M+H-H2O]+=235.01627496799998
COMPUTED_[2M+NH4]+=522.085869936
COMPUTED_[M+CL]-=287.47664496799996
COMPUTED_[M+NH4]+=270.062224968
COMPUTED_[M+K]+=291.121944968
COMPUTED_[2M+H]+=505.05525993599997
COMPUTED_[M+HAC-H]-=311.067674968
FIND_PEAK=ignore rel.int. < 5
COMPUTED_SPECTRAL_ENTROPY=1.5142790589875696
COMPUTED_NORMALIZED_ENTROPY=0.6891780997750302
COMPUTED_MASS_ACCURACY=124.96034782602891
COMPUTED_MASS_ERROR=-0.03161496799998531
MONA_RATING=4.545454545454546
NUM_PEAKS=9
COMPOUND_NAME=Thiacloprid
SPECTRUM_ID=WA000084
ADDUCT=[M+H]+
MS_LEVEL=MS2
PRECURSOR_MZ=253.0
IONMODE=positive
NOMINAL_MASS=252
PARENT_MASS=252.02364496799999
RECORD_DATE=2016.01.19 (Created 2007.08.01, modified 2011.05.06)
63.0 0.07407407
64.0 0.03903904
72.0 0.18018018000000002
90.0 0.9919919899999999
91.0 0.07407407
98.0 0.72172172
100.0 0.00800801
126.0 1.0
127.0 0.02002002
END IONS

BEGIN IONS
CHARGE=1+
INCHIKEY=HOKKPVIRMVDYPB-UVTDQMKNSA-N
INSTRUMENT_TYPE=LC-ESI-QQ
INSTRUMENT=QuattroPremier XE, Waters
COLLISION_ENERGY=30 V
FORMULA=C10H9ClN4S
SMILES=N#CN=C(S2)N(CC2)Cc(c1)cnc(Cl)c1
CAS=111988-49-9
INCHI=InChI=1S/C10H9ClN4S/c11-9-2-1-8(5-13-9)6-15-3-4-16-10(15)14-7-12/h1-2,5H,3-4,6H2/b14-10-
AUTHOR=Nihon Waters K.K.
LICENSE=CC BY-NC
SPLASH=splash10-004i-0900000000-dcbf290e721f22171c08
SUBMITTER=submitter = Nihon Waters (Nihon Waters K.K.)
SYNON_$=00in-source
COMPUTED_SMILES=N#CN=C1SCCN1CC2=CN=C(CL)C=C2
COMPUTED_[2M+H-H2O]+=487.039919936
COMPUTED_[2M+K]+=543.145589936
COMPUTED_[M+H]+=253.03161496799999
COMPUTED_[2M+NA]+=527.037059936
COMPUTED_[2M+CL]-=539.500289936
COMPUTED_[2M+HAC-H]-=563.091319936
COMPUTED_[M-H20-H]-=233.00525496799997
COMPUTED_[M-H]-=251.016368968
COMPUTED_[2M-H]-=503.040013936
COMPUTED_[M+NA]+=275.013414968
COMPUTED_[M+H-H2O]+=235.01627496799998
COMPUTED_[2M+NH4]+=522.085869936
COMPUTED_[M+CL]-=287.47664496799996
COMPUTED_[M+NH4]+=270.062224968
COMPUTED_[M+K]+=291.121944968
COMPUTED_[2M+H]+=505.05525993599997
COMPUTED_[M+HAC-H]-=311.067674968
FIND_PEAK=ignore rel.int. < 5
COMPUTED_SPECTRAL_ENTROPY=0.4005167027794059
COMPUTED_NORMALIZED_ENTROPY=0.20582486964973482
COMPUTED_MASS_ACCURACY=124.96034782602891
COMPUTED_MASS_ERROR=-0.03161496799998531
MONA_RATING=4.545454545454546
NUM_PEAKS=7
COMPOUND_NAME=Thiacloprid
SPECTRUM_ID=WA000083
ADDUCT=[M+H]+
MS_LEVEL=MS2
PRECURSOR_MZ=253.0
IONMODE=positive
NOMINAL_MASS=252
PARENT_MASS=252.02364496799999
RECORD_DATE=2016.01.19 (Created 2007.08.01, modified 2011.05.06)
90.0 0.02702703
99.0 0.00800801
126.0 1.0
127.0 0.01601602
151.0 0.00800801
186.0 0.01201201
253.0 0.01201201
END IONS

BEGIN IONS
CHARGE=1+
INCHIKEY=HOKKPVIRMVDYPB-UVTDQMKNSA-N
INSTRUMENT_TYPE=LC-ESI-QQ
INSTRUMENT=QuattroPremier XE, Waters
COLLISION_ENERGY=20 V
FORMULA=C10H9ClN4S
SMILES=N#CN=C(S2)N(CC2)Cc(c1)cnc(Cl)c1
CAS=111988-49-9
INCHI=InChI=1S/C10H9ClN4S/c11-9-2-1-8(5-13-9)6-15-3-4-16-10(15)14-7-12/h1-2,5H,3-4,6H2/b14-10-
AUTHOR=Nihon Waters K.K.
LICENSE=CC BY-NC
SPLASH=splash10-0fb9-0940000000-abf01372320cd77b9405
SUBMITTER=submitter = Nihon Waters (Nihon Waters K.K.)
SYNON_$=00in-source
COMPUTED_SMILES=N#CN=C1SCCN1CC2=CN=C(CL)C=C2
COMPUTED_[2M+H-H2O]+=487.039919936
COMPUTED_[2M+K]+=543.145589936
COMPUTED_[M+H]+=253.03161496799999
COMPUTED_[2M+NA]+=527.037059936
COMPUTED_[2M+CL]-=539.500289936
COMPUTED_[2M+HAC-H]-=563.091319936
COMPUTED_[M-H20-H]-=233.00525496799997
COMPUTED_[M-H]-=251.016368968
COMPUTED_[2M-H]-=503.040013936
COMPUTED_[M+NA]+=275.013414968
COMPUTED_[M+H-H2O]+=235.01627496799998
COMPUTED_[2M+NH4]+=522.085869936
COMPUTED_[M+CL]-=287.47664496799996
COMPUTED_[M+NH4]+=270.062224968
COMPUTED_[M+K]+=291.121944968
COMPUTED_[2M+H]+=505.05525993599997
COMPUTED_[M+HAC-H]-=311.067674968
FIND_PEAK=ignore rel.int. < 5
COMPUTED_SPECTRAL_ENTROPY=1.199726312618507
COMPUTED_NORMALIZED_ENTROPY=0.5210345173643531
COMPUTED_MASS_ACCURACY=124.96034782602891
COMPUTED_MASS_ERROR=-0.03161496799998531
MONA_RATING=4.545454545454546
NUM_PEAKS=10
COMPOUND_NAME=Thiacloprid
SPECTRUM_ID=WA000082
ADDUCT=[M+H]+
MS_LEVEL=MS2
PRECURSOR_MZ=253.0
IONMODE=positive
NOMINAL_MASS=252
PARENT_MASS=252.02364496799999
RECORD_DATE=2016.01.19 (Created 2007.08.01, modified 2011.05.06)
126.0 1.0
127.0 0.01601602
151.0 0.01201201
186.0 0.17217217
211.0 0.01201201
217.0 0.01601602
226.0 0.02402402
236.0 0.00800801
253.0 0.57657658
254.0 0.02402402
END IONS

BEGIN IONS
CHARGE=1+
INCHIKEY=HOKKPVIRMVDYPB-UVTDQMKNSA-N
INSTRUMENT_TYPE=LC-ESI-QQ
INSTRUMENT=QuattroPremier XE, Waters
COLLISION_ENERGY=10 V
FORMULA=C10H9ClN4S
SMILES=N#CN=C(S2)N(CC2)Cc(c1)cnc(Cl)c1
CAS=111988-49-9
INCHI=InChI=1S/C10H9ClN4S/c11-9-2-1-8(5-13-9)6-15-3-4-16-10(15)14-7-12/h1-2,5H,3-4,6H2/b14-10-
AUTHOR=Nihon Waters K.K.
LICENSE=CC BY-NC
SPLASH=splash10-0udi-0090000000-d4cd3beb01ab30208997
SUBMITTER=submitter = Nihon Waters (Nihon Waters K.K.)
SYNON_$=00in-source
COMPUTED_SMILES=N#CN=C1SCCN1CC2=CN=C(CL)C=C2
COMPUTED_[2M+H-H2O]+=487.039919936
COMPUTED_[2M+K]+=543.145589936
COMPUTED_[M+H]+=253.03161496799999
COMPUTED_[2M+NA]+=527.037059936
COMPUTED_[2M+CL]-=539.500289936
COMPUTED_[2M+HAC-H]-=563.091319936
COMPUTED_[M-H20-H]-=233.00525496799997
COMPUTED_[M-H]-=251.016368968
COMPUTED_[2M-H]-=503.040013936
COMPUTED_[M+NA]+=275.013414968
COMPUTED_[M+H-H2O]+=235.01627496799998
COMPUTED_[2M+NH4]+=522.085869936
COMPUTED_[M+CL]-=287.47664496799996
COMPUTED_[M+NH4]+=270.062224968
COMPUTED_[M+K]+=291.121944968
COMPUTED_[2M+H]+=505.05525993599997
COMPUTED_[M+HAC-H]-=311.067674968
FIND_PEAK=ignore rel.int. < 5
COMPUTED_SPECTRAL_ENTROPY=0.2185433233689175
COMPUTED_NORMALIZED_ENTROPY=0.1576456844218652
COMPUTED_MASS_ACCURACY=124.96034782602891
COMPUTED_MASS_ERROR=-0.03161496799998531
MONA_RATING=4.545454545454546
NUM_PEAKS=4
COMPOUND_NAME=Thiacloprid
SPECTRUM_ID=WA000081
ADDUCT=[M+H]+
MS_LEVEL=MS2
PRECURSOR_MZ=253.0
IONMODE=positive
NOMINAL_MASS=252
PARENT_MASS=252.02364496799999
RECORD_DATE=2016.01.19 (Created 2007.08.01, modified 2011.05.06)
126.0 0.01601602
186.0 0.00800801
253.0 1.0
254.0 0.02002002
END IONS

BEGIN IONS
CHARGE=1+
INCHIKEY=YABFPHSQTSFWQB-UHFFFAOYSA-N
INSTRUMENT_TYPE=LC-ESI-QQ
INSTRUMENT=QuattroPremier XE, Waters
COLLISION_ENERGY=40 V
FORMULA=C14H20FN3OSi
CAS=149508-90-7
SMILES=Fc(c2)ccc(c2)C(O)(Cn(c1)ncn1)C[Si](C)(C)C
INCHI=InChI=1S/C14H20FN3OSi/c1-20(2,3)9-14(19,8-18-11-16-10-17-18)12-4-6-13(15)7-5-12/h4-7,10-11,19H,8-9H2,1-3H3
AUTHOR=Nihon Waters K.K.
LICENSE=CC BY-NC
SPLASH=splash10-00di-9300000000-3966dfbbb380d8c4f910
SUBMITTER=submitter = Nihon Waters (Nihon Waters K.K.)
SYNON_$=00in-source
COMPUTED_SMILES=FC1=CC=C(C=C1)C(O)(CN2N=CN=C2)C[Si](C)(C)C
COMPUTED_[2M+H-H2O]+=569.26456402
COMPUTED_[2M+K]+=625.37023402
COMPUTED_[M+H]+=294.14393701
COMPUTED_[2M+NA]+=609.26170402
COMPUTED_[2M+CL]-=621.72493402
COMPUTED_[2M+HAC-H]-=645.31596402
COMPUTED_[M-H20-H]-=274.11757701
COMPUTED_[M-H]-=292.12869101
COMPUTED_[2M-H]-=585.26465802
COMPUTED_[M+NA]+=316.12573701
COMPUTED_[M+H-H2O]+=276.12859701
COMPUTED_[2M+NH4]+=604.31051402
COMPUTED_[M+CL]-=328.58896701000003
COMPUTED_[M+NH4]+=311.17454701
COMPUTED_[M+K]+=332.23426701
COMPUTED_[2M+H]+=587.27990402
COMPUTED_[M+HAC-H]-=352.17999701
FIND_PEAK=ignore rel.int. < 5
COMPUTED_SPECTRAL_ENTROPY=1.4783055958327636
COMPUTED_NORMALIZED_ENTROPY=0.642019962836868
COMPUTED_MASS_ACCURACY=156.5756483904817
COMPUTED_MASS_ERROR=0.04606298999999581
MONA_RATING=4.545454545454546
NUM_PEAKS=10
COMPOUND_NAME=Simeconazole
SPECTRUM_ID=WA000076
ADDUCT=[M+H]+
MS_LEVEL=MS2
PRECURSOR_MZ=294.19
IONMODE=positive
NOMINAL_MASS=293
PARENT_MASS=293.13596701
RECORD_DATE=2016.01.19 (Created 2007.08.01, modified 2011.05.06)
70.0 1.0
73.0 0.36036036000000005
75.0 0.07107107
77.0 0.00800801
109.0 0.03903904
115.0 0.18418418
133.0 0.04704705
135.0 0.21221221
136.0 0.00800801
153.0 0.00800801
END IONS

BEGIN IONS
CHARGE=1+
INCHIKEY=YABFPHSQTSFWQB-UHFFFAOYSA-N
INSTRUMENT_TYPE=LC-ESI-QQ
INSTRUMENT=QuattroPremier XE, Waters
COLLISION_ENERGY=30 V
FORMULA=C14H20FN3OSi
SMILES=Fc(c2)ccc(c2)C(O)(Cn(c1)ncn1)C[Si](C)(C)C
CAS=149508-90-7
INCHI=InChI=1S/C14H20FN3OSi/c1-20(2,3)9-14(19,8-18-11-16-10-17-18)12-4-6-13(15)7-5-12/h4-7,10-11,19H,8-9H2,1-3H3
AUTHOR=Nihon Waters K.K.
LICENSE=CC BY-NC
SPLASH=splash10-00di-9200000000-dc6b8fe66750aa802868
SUBMITTER=submitter = Nihon Waters (Nihon Waters K.K.)
SYNON_$=00in-source
COMPUTED_SMILES=FC1=CC=C(C=C1)C(O)(CN2N=CN=C2)C[Si](C)(C)C
COMPUTED_[2M+H-H2O]+=569.26456402
COMPUTED_[2M+K]+=625.37023402
COMPUTED_[M+H]+=294.14393701
COMPUTED_[2M+NA]+=609.26170402
COMPUTED_[2M+CL]-=621.72493402
COMPUTED_[2M+HAC-H]-=645.31596402
COMPUTED_[M-H20-H]-=274.11757701
COMPUTED_[M-H]-=292.12869101
COMPUTED_[2M-H]-=585.26465802
COMPUTED_[M+NA]+=316.12573701
COMPUTED_[M+H-H2O]+=276.12859701
COMPUTED_[2M+NH4]+=604.31051402
COMPUTED_[M+CL]-=328.58896701000003
COMPUTED_[M+NH4]+=311.17454701
COMPUTED_[M+K]+=332.23426701
COMPUTED_[2M+H]+=587.27990402
COMPUTED_[M+HAC-H]-=352.17999701
FIND_PEAK=ignore rel.int. < 5
COMPUTED_SPECTRAL_ENTROPY=1.3447859328255096
COMPUTED_NORMALIZED_ENTROPY=0.5411816709252397
COMPUTED_MASS_ACCURACY=156.5756483904817
COMPUTED_MASS_ERROR=0.04606298999999581
MONA_RATING=4.545454545454546
NUM_PEAKS=12
COMPOUND_NAME=Simeconazole
SPECTRUM_ID=WA000075
ADDUCT=[M+H]+
MS_LEVEL=MS2
PRECURSOR_MZ=294.19
IONMODE=positive
NOMINAL_MASS=293
PARENT_MASS=293.13596701
RECORD_DATE=2016.01.19 (Created 2007.08.01, modified 2011.05.06)
70.0 1.0
73.0 0.22722722999999997
75.0 0.043043040000000005
77.0 0.00800801
91.0 0.01201201
115.0 0.06706706999999999
129.0 0.01601602
133.0 0.01201201
135.0 0.25925926
142.0 0.01601602
153.0 0.01201201
209.0 0.01201201
END IONS

BEGIN IONS
CHARGE=1+
INCHIKEY=YABFPHSQTSFWQB-UHFFFAOYSA-N
INSTRUMENT_TYPE=LC-ESI-QQ
INSTRUMENT=QuattroPremier XE, Waters
COLLISION_ENERGY=20 V
FORMULA=C14H20FN3OSi
SMILES=Fc(c2)ccc(c2)C(O)(Cn(c1)ncn1)C[Si](C)(C)C
CAS=149508-90-7
INCHI=InChI=1S/C14H20FN3OSi/c1-20(2,3)9-14(19,8-18-11-16-10-17-18)12-4-6-13(15)7-5-12/h4-7,10-11,19H,8-9H2,1-3H3
AUTHOR=Nihon Waters K.K.
LICENSE=CC BY-NC
SPLASH=splash10-00di-9130000000-4aab3c0baa63334984e6
SUBMITTER=submitter = Nihon Waters (Nihon Waters K.K.)
SYNON_$=00in-source
COMPUTED_SMILES=FC1=CC=C(C=C1)C(O)(CN2N=CN=C2)C[Si](C)(C)C
COMPUTED_[2M+H-H2O]+=569.26456402
COMPUTED_[2M+K]+=625.37023402
COMPUTED_[M+H]+=294.14393701
COMPUTED_[2M+NA]+=609.26170402
COMPUTED_[2M+CL]-=621.72493402
COMPUTED_[2M+HAC-H]-=645.31596402
COMPUTED_[M-H20-H]-=274.11757701
COMPUTED_[M-H]-=292.12869101
COMPUTED_[2M-H]-=585.26465802
COMPUTED_[M+NA]+=316.12573701
COMPUTED_[M+H-H2O]+=276.12859701
COMPUTED_[2M+NH4]+=604.31051402
COMPUTED_[M+CL]-=328.58896701000003
COMPUTED_[M+NH4]+=311.17454701
COMPUTED_[M+K]+=332.23426701
COMPUTED_[2M+H]+=587.27990402
COMPUTED_[M+HAC-H]-=352.17999701
FIND_PEAK=ignore rel.int. < 5
COMPUTED_SPECTRAL_ENTROPY=1.4685136572667434
COMPUTED_NORMALIZED_ENTROPY=0.5725312482270968
COMPUTED_MASS_ACCURACY=156.5756483904817
COMPUTED_MASS_ERROR=0.04606298999999581
MONA_RATING=4.545454545454546
NUM_PEAKS=13
COMPOUND_NAME=Simeconazole
SPECTRUM_ID=WA000074
ADDUCT=[M+H]+
MS_LEVEL=MS2
PRECURSOR_MZ=294.19
IONMODE=positive
NOMINAL_MASS=293
PARENT_MASS=293.13596701
RECORD_DATE=2016.01.19 (Created 2007.08.01, modified 2011.05.06)
70.0 1.0
73.0 0.08608608999999999
75.0 0.01601602
91.0 0.01601602
115.0 0.00800801
129.0 0.03103103
135.0 0.13713714
142.0 0.02002002
209.0 0.04704705
225.0 0.02002002
276.0 0.02402402
294.0 0.36836837
295.0 0.01601602
END IONS

BEGIN IONS
CHARGE=1+
INCHIKEY=YABFPHSQTSFWQB-UHFFFAOYSA-N
INSTRUMENT_TYPE=LC-ESI-QQ
INSTRUMENT=QuattroPremier XE, Waters
COLLISION_ENERGY=10 V
FORMULA=C14H20FN3OSi
SMILES=Fc(c2)ccc(c2)C(O)(Cn(c1)ncn1)C[Si](C)(C)C
CAS=149508-90-7
INCHI=InChI=1S/C14H20FN3OSi/c1-20(2,3)9-14(19,8-18-11-16-10-17-18)12-4-6-13(15)7-5-12/h4-7,10-11,19H,8-9H2,1-3H3
AUTHOR=Nihon Waters K.K.
LICENSE=CC BY-NC
SPLASH=splash10-0006-0090000000-ad9c98f881b69a6dbdb5
SUBMITTER=submitter = Nihon Waters (Nihon Waters K.K.)
SYNON_$=00in-source
COMPUTED_SMILES=FC1=CC=C(C=C1)C(O)(CN2N=CN=C2)C[Si](C)(C)C
COMPUTED_[2M+H-H2O]+=569.26456402
COMPUTED_[2M+K]+=625.37023402
COMPUTED_[M+H]+=294.14393701
COMPUTED_[2M+NA]+=609.26170402
COMPUTED_[2M+CL]-=621.72493402
COMPUTED_[2M+HAC-H]-=645.31596402
COMPUTED_[M-H20-H]-=274.11757701
COMPUTED_[M-H]-=292.12869101
COMPUTED_[2M-H]-=585.26465802
COMPUTED_[M+NA]+=316.12573701
COMPUTED_[M+H-H2O]+=276.12859701
COMPUTED_[2M+NH4]+=604.31051402
COMPUTED_[M+CL]-=328.58896701000003
COMPUTED_[M+NH4]+=311.17454701
COMPUTED_[M+K]+=332.23426701
COMPUTED_[2M+H]+=587.27990402
COMPUTED_[M+HAC-H]-=352.17999701
FIND_PEAK=ignore rel.int. < 5
COMPUTED_SPECTRAL_ENTROPY=0.3287777151790118
COMPUTED_NORMALIZED_ENTROPY=0.29926637319668226
COMPUTED_MASS_ACCURACY=156.5756483904817
COMPUTED_MASS_ERROR=0.04606298999999581
MONA_RATING=4.545454545454546
NUM_PEAKS=3
COMPOUND_NAME=Simeconazole
SPECTRUM_ID=WA000073
ADDUCT=[M+H]+
MS_LEVEL=MS2
PRECURSOR_MZ=294.19
IONMODE=positive
NOMINAL_MASS=293
PARENT_MASS=293.13596701
RECORD_DATE=2016.01.19 (Created 2007.08.01, modified 2011.05.06)
70.0 0.03103103
294.0 1.0
295.0 0.055055059999999996
END IONS

BEGIN IONS
CHARGE=1+
INCHIKEY=YXKMMRDKEKCERS-UHFFFAOYSA-N
INSTRUMENT_TYPE=LC-ESI-QQ
INSTRUMENT=QuattroPremier XE, Waters
COLLISION_ENERGY=40 V
FORMULA=C13H13ClN4O2S
SMILES=Cc(c2)ccc(c2)c(c(Cl)1)n(c(C#N)n1)S(=O)(=O)N(C)C
CAS=120116-88-3
INCHI=InChI=1S/C13H13ClN4O2S/c1-9-4-6-10(7-5-9)12-13(14)16-11(8-15)18(12)21(19,20)17(2)3/h4-7H,1-3H3
AUTHOR=Nihon Waters K.K.
LICENSE=CC BY-NC
SPLASH=splash10-0a4i-1911000000-fa252d84612b51f4a9b9
SUBMITTER=submitter = Nihon Waters (Nihon Waters K.K.)
SYNON_$=00in-source
COMPUTED_SMILES=N#CC1=NC(CL)=C(C=2C=CC(=CC2)C)N1S(=O)(=O)N(C)C
COMPUTED_[2M+H-H2O]+=631.0821786719999
COMPUTED_[2M+K]+=687.187848672
COMPUTED_[M+H]+=325.052744336
COMPUTED_[2M+NA]+=671.079318672
COMPUTED_[2M+CL]-=683.542548672
COMPUTED_[2M+HAC-H]-=707.133578672
COMPUTED_[M-H20-H]-=305.026384336
COMPUTED_[M-H]-=323.037498336
COMPUTED_[2M-H]-=647.0822726719999
COMPUTED_[M+NA]+=347.034544336
COMPUTED_[M+H-H2O]+=307.037404336
COMPUTED_[2M+NH4]+=666.128128672
COMPUTED_[M+CL]-=359.497774336
COMPUTED_[M+NH4]+=342.083354336
COMPUTED_[M+K]+=363.143074336
COMPUTED_[2M+H]+=649.097518672
COMPUTED_[M+HAC-H]-=383.088804336
FIND_PEAK=ignore rel.int. < 5
COMPUTED_SPECTRAL_ENTROPY=3.9246054010333618
COMPUTED_NORMALIZED_ENTROPY=0.7919173440513408
COMPUTED_MASS_ACCURACY=268.3633634741867
COMPUTED_MASS_ERROR=0.08725566399999707
MONA_RATING=4.166666666666666
NUM_PEAKS=142
COMPOUND_NAME=Cyazofamid
SPECTRUM_ID=WA000067
ADDUCT=[M+H]+
MS_LEVEL=MS2
PRECURSOR_MZ=325.14
IONMODE=positive
NOMINAL_MASS=324
PARENT_MASS=324.044774336
RECORD_DATE=2016.01.19 (Created 2007.08.01, modified 2011.05.06)
53.0 0.01601602
55.0 0.01601602
60.0 0.035035039999999996
63.0 0.06706706999999999
65.0 0.06306306
67.0 0.01201201
77.0 0.05905906
79.0 0.04704705
85.0 0.07407407
101.0 0.01201201
102.0 0.06306306
104.0 0.03903904
107.0 1.0
112.0 0.19219218999999998
115.0 0.01601602
116.0 0.1021021
122.0 0.02002002
125.0 0.01201201
127.0 0.035035039999999996
129.0 0.43943944
130.0 0.07807808
132.0 0.055055059999999996
133.0 0.01201201
135.0 0.00800801
136.0 0.05905906
138.0 0.02702703
142.0 0.00800801
144.0 0.043043040000000005
147.0 0.01201201
151.0 0.01601602
153.0 0.12512513
155.0 0.29029029
156.0 0.07107107
160.0 0.00800801
162.0 0.01201201
163.0 0.09409409
164.0 0.02002002
167.0 0.043043040000000005
169.0 0.00800801
171.0 0.043043040000000005
174.0 0.01201201
176.0 0.01201201
179.0 0.06706706999999999
181.0 0.07807808
182.0 0.11411410999999999
183.0 0.06706706999999999
186.0 0.01201201
188.0 0.01601602
190.0 0.09409409
193.0 0.00800801
198.0 0.00800801
199.0 0.035035039999999996
200.0 0.00800801
205.0 0.01601602
208.0 0.01601602
210.0 0.00800801
213.0 0.01201201
215.0 0.00800801
217.0 0.01201201
219.0 0.00800801
221.0 0.00800801
224.0 0.01601602
229.0 0.00800801
230.0 0.06306306
231.0 0.05905906
233.0 0.00800801
235.0 0.00800801
237.0 0.01201201
239.0 0.00800801
241.0 0.00800801
244.0 0.00800801
246.0 0.02402402
248.0 0.01201201
251.0 0.01201201
254.0 0.01601602
256.0 0.00800801
258.0 0.01201201
260.0 0.01601602
265.0 0.00800801
267.0 0.01201201
270.0 0.00800801
273.0 0.02002002
275.0 0.01201201
277.0 0.02002002
279.0 0.00800801
281.0 0.01201201
283.0 0.02002002
286.0 0.01201201
288.0 0.01601602
291.0 0.02002002
293.0 0.00800801
295.0 0.01201201
297.0 0.00800801
298.0 0.01201201
301.0 0.01601602
303.0 0.01201201
305.0 0.00800801
306.0 0.00800801
308.0 0.01201201
310.0 0.02402402
312.0 0.02002002
315.0 0.01601602
318.0 0.01201201
320.0 0.00800801
324.0 0.01201201
327.0 0.01201201
330.0 0.00800801
332.0 0.02002002
333.0 0.00800801
336.0 0.02702703
350.0 0.00800801
352.0 0.01201201
354.0 0.00800801
356.0 0.02002002
358.0 0.02002002
362.0 0.02002002
365.0 0.01201201
368.0 0.00800801
370.0 0.01201201
373.0 0.01201201
375.0 0.02002002
379.0 0.01201201
382.0 0.01201201
386.0 0.01601602
389.0 0.01601602
391.0 0.00800801
395.0 0.00800801
396.0 0.01601602
END IONS

BEGIN IONS
CHARGE=1+
INCHIKEY=YXKMMRDKEKCERS-UHFFFAOYSA-N
INSTRUMENT_TYPE=LC-ESI-QQ
INSTRUMENT=QuattroPremier XE, Waters
COLLISION_ENERGY=30 V
FORMULA=C13H13ClN4O2S
SMILES=Cc(c2)ccc(c2)c(c(Cl)1)n(c(C#N)n1)S(=O)(=O)N(C)C
CAS=120116-88-3
INCHI=InChI=1S/C13H13ClN4O2S/c1-9-4-6-10(7-5-9)12-13(14)16-11(8-15)18(12)21(19,20)17(2)3/h4-7H,1-3H3
AUTHOR=Nihon Waters K.K.
LICENSE=CC BY-NC
SPLASH=splash10-0a4i-0900000000-add598386e3bf311b1ec
SUBMITTER=submitter = Nihon Waters (Nihon Waters K.K.)
SYNON_$=00in-source
COMPUTED_SMILES=N#CC1=NC(CL)=C(C=2C=CC(=CC2)C)N1S(=O)(=O)N(C)C
COMPUTED_[2M+H-H2O]+=631.082178672
COMPUTED_[2M+K]+=687.1878486720001
COMPUTED_[M+H]+=325.05274433600005
COMPUTED_[2M+NA]+=671.0793186720001
COMPUTED_[2M+CL]-=683.5425486720001
COMPUTED_[2M+HAC-H]-=707.1335786720001
COMPUTED_[M-H20-H]-=305.02638433600004
COMPUTED_[M-H]-=323.03749833600006
COMPUTED_[2M-H]-=647.082272672
COMPUTED_[M+NA]+=347.03454433600007
COMPUTED_[M+H-H2O]+=307.03740433600007
COMPUTED_[2M+NH4]+=666.1281286720001
COMPUTED_[M+CL]-=359.497774336
COMPUTED_[M+NH4]+=342.08335433600007
COMPUTED_[M+K]+=363.14307433600004
COMPUTED_[2M+H]+=649.0975186720001
COMPUTED_[M+HAC-H]-=383.08880433600007
FIND_PEAK=ignore rel.int. < 5
COMPUTED_SPECTRAL_ENTROPY=1.6398264611709552
COMPUTED_NORMALIZED_ENTROPY=0.5305092006709056
COMPUTED_MASS_ACCURACY=268.36336347401186
COMPUTED_MASS_ERROR=0.08725566399994023
MONA_RATING=4.166666666666666
NUM_PEAKS=22
COMPOUND_NAME=Cyazofamid
SPECTRUM_ID=WA000066
ADDUCT=[M+H]+
MS_LEVEL=MS2
PRECURSOR_MZ=325.14
IONMODE=positive
NOMINAL_MASS=324
PARENT_MASS=324.04477433600005
RECORD_DATE=2016.01.19 (Created 2007.08.01, modified 2011.05.06)
64.0 0.01601602
65.0 0.01601602
68.0 0.01201201
105.0 0.01601602
108.0 1.0
109.0 0.01601602
111.0 0.01201201
115.0 0.01601602
117.0 0.01201201
128.0 0.12112112
138.0 0.02002002
147.0 0.02002002
160.0 0.00800801
164.0 0.14114114
177.0 0.02402402
181.0 0.02402402
183.0 0.01201201
209.0 0.01201201
210.0 0.02702703
216.0 0.043043040000000005
217.0 0.02702703
245.0 0.00800801
END IONS

BEGIN IONS
CHARGE=1+
INCHIKEY=YXKMMRDKEKCERS-UHFFFAOYSA-N
INSTRUMENT_TYPE=LC-ESI-QQ
INSTRUMENT=QuattroPremier XE, Waters
COLLISION_ENERGY=20 V
FORMULA=C13H13ClN4O2S
SMILES=Cc(c2)ccc(c2)c(c(Cl)1)n(c(C#N)n1)S(=O)(=O)N(C)C
CAS=120116-88-3
INCHI=InChI=1S/C13H13ClN4O2S/c1-9-4-6-10(7-5-9)12-13(14)16-11(8-15)18(12)21(19,20)17(2)3/h4-7H,1-3H3
AUTHOR=Nihon Waters K.K.
LICENSE=CC BY-NC
SPLASH=splash10-0a4i-0900000000-b128db8be84921665105
SUBMITTER=submitter = Nihon Waters (Nihon Waters K.K.)
SYNON_$=00in-source
COMPUTED_SMILES=N#CC1=NC(CL)=C(C=2C=CC(=CC2)C)N1S(=O)(=O)N(C)C
COMPUTED_[2M+H-H2O]+=631.0821786719998
COMPUTED_[2M+K]+=687.1878486719999
COMPUTED_[M+H]+=325.05274433599993
COMPUTED_[2M+NA]+=671.0793186719999
COMPUTED_[2M+CL]-=683.5425486719998
COMPUTED_[2M+HAC-H]-=707.1335786719999
COMPUTED_[M-H20-H]-=305.0263843359999
COMPUTED_[M-H]-=323.03749833599994
COMPUTED_[2M-H]-=647.0822726719998
COMPUTED_[M+NA]+=347.03454433599995
COMPUTED_[M+H-H2O]+=307.03740433599995
COMPUTED_[2M+NH4]+=666.1281286719999
COMPUTED_[M+CL]-=359.4977743359999
COMPUTED_[M+NH4]+=342.08335433599996
COMPUTED_[M+K]+=363.1430743359999
COMPUTED_[2M+H]+=649.0975186719999
COMPUTED_[M+HAC-H]-=383.08880433599995
FIND_PEAK=ignore rel.int. < 5
COMPUTED_SPECTRAL_ENTROPY=0.5218842645997673
COMPUTED_NORMALIZED_ENTROPY=0.2681954584866768
COMPUTED_MASS_ACCURACY=268.36336347436156
COMPUTED_MASS_ERROR=0.08725566400005391
MONA_RATING=4.166666666666666
NUM_PEAKS=7
COMPOUND_NAME=Cyazofamid
SPECTRUM_ID=WA000065
ADDUCT=[M+H]+
MS_LEVEL=MS2
PRECURSOR_MZ=325.14
IONMODE=positive
NOMINAL_MASS=324
PARENT_MASS=324.04477433599993
RECORD_DATE=2016.01.19 (Created 2007.08.01, modified 2011.05.06)
108.0 1.0
109.0 0.01201201
217.0 0.05105105
225.0 0.01601602
261.0 0.02002002
280.0 0.01201201
325.0 0.01201201
END IONS

BEGIN IONS
CHARGE=1+
INCHIKEY=YXKMMRDKEKCERS-UHFFFAOYSA-N
INSTRUMENT_TYPE=LC-ESI-QQ
INSTRUMENT=QuattroPremier XE, Waters
COLLISION_ENERGY=10 V
FORMULA=C13H13ClN4O2S
SMILES=Cc(c2)ccc(c2)c(c(Cl)1)n(c(C#N)n1)S(=O)(=O)N(C)C
CAS=120116-88-3
INCHI=InChI=1S/C13H13ClN4O2S/c1-9-4-6-10(7-5-9)12-13(14)16-11(8-15)18(12)21(19,20)17(2)3/h4-7H,1-3H3
AUTHOR=Nihon Waters K.K.
LICENSE=CC BY-NC
SPLASH=splash10-004i-0419000000-642e7863471979a91cc2
SUBMITTER=submitter = Nihon Waters (Nihon Waters K.K.)
SYNON_$=00in-source
COMPUTED_SMILES=N#CC1=NC(CL)=C(C=2C=CC(=CC2)C)N1S(=O)(=O)N(C)C
COMPUTED_[2M+H-H2O]+=631.0821786719999
COMPUTED_[2M+K]+=687.187848672
COMPUTED_[M+H]+=325.052744336
COMPUTED_[2M+NA]+=671.079318672
COMPUTED_[2M+CL]-=683.542548672
COMPUTED_[2M+HAC-H]-=707.133578672
COMPUTED_[M-H20-H]-=305.026384336
COMPUTED_[M-H]-=323.037498336
COMPUTED_[2M-H]-=647.0822726719999
COMPUTED_[M+NA]+=347.034544336
COMPUTED_[M+H-H2O]+=307.037404336
COMPUTED_[2M+NH4]+=666.128128672
COMPUTED_[M+CL]-=359.497774336
COMPUTED_[M+NH4]+=342.083354336
COMPUTED_[M+K]+=363.143074336
COMPUTED_[2M+H]+=649.097518672
COMPUTED_[M+HAC-H]-=383.088804336
FIND_PEAK=ignore rel.int. < 5
COMPUTED_SPECTRAL_ENTROPY=1.0948648872355367
COMPUTED_NORMALIZED_ENTROPY=0.5265187144193877
COMPUTED_MASS_ACCURACY=268.3633634741867
COMPUTED_MASS_ERROR=0.08725566399999707
MONA_RATING=4.166666666666666
NUM_PEAKS=8
COMPOUND_NAME=Cyazofamid
SPECTRUM_ID=WA000064
ADDUCT=[M+H]+
MS_LEVEL=MS2
PRECURSOR_MZ=325.14
IONMODE=positive
NOMINAL_MASS=324
PARENT_MASS=324.044774336
RECORD_DATE=2016.01.19 (Created 2007.08.01, modified 2011.05.06)
107.0 0.4984985
109.0 0.01201201
216.0 0.02002002
261.0 0.1021021
267.0 0.00800801
280.0 0.00800801
325.0 1.0
326.0 0.05905906
END IONS

BEGIN IONS
CHARGE=1+
INCHIKEY=WYKYKTKDBLFHCY-UHFFFAOYSA-N
INSTRUMENT_TYPE=LC-ESI-QQ
INSTRUMENT=QuattroPremier XE, Waters
COLLISION_ENERGY=40 V
FORMULA=C10H8ClN3O
SMILES=NC(C=2)=C(Cl)C(=O)N(N2)c(c1)cccc1
CAS=1698-60-8
INCHI=InChI=1S/C10H8ClN3O/c11-9-8(12)6-13-14(10(9)15)7-4-2-1-3-5-7/h1-6H,12H2
AUTHOR=Nihon Waters K.K.
LICENSE=CC BY-NC
SPLASH=splash10-00ou-9200000000-09393816e63a4c8592e0
SUBMITTER=submitter = Nihon Waters (Nihon Waters K.K.)
SYNON_$=00in-source
COMPUTED_SMILES=O=C1C(CL)=C(N)C=NN1C=2C=CC=CC2
COMPUTED_[2M+H-H2O]+=425.063809112
COMPUTED_[2M+K]+=481.169479112
COMPUTED_[M+H]+=222.043559556
COMPUTED_[2M+NA]+=465.060949112
COMPUTED_[2M+CL]-=477.52417911199996
COMPUTED_[2M+HAC-H]-=501.115209112
COMPUTED_[M-H20-H]-=202.01719955599998
COMPUTED_[M-H]-=220.028313556
COMPUTED_[2M-H]-=441.063903112
COMPUTED_[M+NA]+=244.02535955599998
COMPUTED_[M+H-H2O]+=204.02821955599998
COMPUTED_[2M+NH4]+=460.109759112
COMPUTED_[M+CL]-=256.48858955599997
COMPUTED_[M+NH4]+=239.074169556
COMPUTED_[M+K]+=260.133889556
COMPUTED_[2M+H]+=443.079149112
COMPUTED_[M+HAC-H]-=280.079619556
FIND_PEAK=ignore rel.int. < 5
COMPUTED_SPECTRAL_ENTROPY=2.480061824640973
COMPUTED_NORMALIZED_ENTROPY=0.6975580960706335
COMPUTED_MASS_ACCURACY=376.46222742828934
COMPUTED_MASS_ERROR=-0.0835595559999831
MONA_RATING=4.166666666666666
NUM_PEAKS=35
COMPOUND_NAME=Chloridazon
SPECTRUM_ID=WA000063
ADDUCT=[M+H]+
MS_LEVEL=MS2
PRECURSOR_MZ=221.96
IONMODE=positive
NOMINAL_MASS=221
PARENT_MASS=221.035589556
RECORD_DATE=2016.01.19 (Created 2007.08.01, modified 2011.05.06)
51.0 0.05905906
53.0 0.01201201
55.0 0.06306306
63.0 0.01201201
65.0 0.69369369
66.0 0.05905906
73.0 0.08208208
75.0 0.02402402
77.0 1.0
78.0 0.01601602
82.0 0.01201201
87.0 0.16816817
89.0 0.01201201
92.0 0.44344344
93.0 0.1021021
100.0 0.14514515
102.0 0.01201201
104.0 0.15315315
113.0 0.01201201
114.0 0.02702703
116.0 0.03903904
119.0 0.035035039999999996
123.0 0.01201201
128.0 0.01601602
129.0 0.05105105
131.0 0.01201201
132.0 0.035035039999999996
146.0 0.06706706999999999
147.0 0.00800801
149.0 0.02002002
160.0 0.00800801
163.0 0.02002002
165.0 0.01201201
176.0 0.00800801
191.0 0.02702703
END IONS

BEGIN IONS
CHARGE=1+
INCHIKEY=WYKYKTKDBLFHCY-UHFFFAOYSA-N
INSTRUMENT_TYPE=LC-ESI-QQ
INSTRUMENT=QuattroPremier XE, Waters
COLLISION_ENERGY=30 V
FORMULA=C10H8ClN3O
SMILES=NC(C=2)=C(Cl)C(=O)N(N2)c(c1)cccc1
CAS=1698-60-8
INCHI=InChI=1S/C10H8ClN3O/c11-9-8(12)6-13-14(10(9)15)7-4-2-1-3-5-7/h1-6H,12H2
AUTHOR=Nihon Waters K.K.
LICENSE=CC BY-NC
SPLASH=splash10-0f96-9400000000-945f2c1a6d3db083c076
SUBMITTER=submitter = Nihon Waters (Nihon Waters K.K.)
SYNON_$=00in-source
COMPUTED_SMILES=O=C1C(CL)=C(N)C=NN1C=2C=CC=CC2
COMPUTED_[2M+H-H2O]+=425.063809112
COMPUTED_[2M+K]+=481.169479112
COMPUTED_[M+H]+=222.043559556
COMPUTED_[2M+NA]+=465.060949112
COMPUTED_[2M+CL]-=477.52417911199996
COMPUTED_[2M+HAC-H]-=501.115209112
COMPUTED_[M-H20-H]-=202.01719955599998
COMPUTED_[M-H]-=220.028313556
COMPUTED_[2M-H]-=441.063903112
COMPUTED_[M+NA]+=244.02535955599998
COMPUTED_[M+H-H2O]+=204.02821955599998
COMPUTED_[2M+NH4]+=460.109759112
COMPUTED_[M+CL]-=256.48858955599997
COMPUTED_[M+NH4]+=239.074169556
COMPUTED_[M+K]+=260.133889556
COMPUTED_[2M+H]+=443.079149112
COMPUTED_[M+HAC-H]-=280.079619556
FIND_PEAK=ignore rel.int. < 5
COMPUTED_SPECTRAL_ENTROPY=2.5554065139150577
COMPUTED_NORMALIZED_ENTROPY=0.7025006148877782
COMPUTED_MASS_ACCURACY=376.46222742828934
COMPUTED_MASS_ERROR=-0.0835595559999831
MONA_RATING=4.166666666666666
NUM_PEAKS=38
COMPOUND_NAME=Chloridazon
SPECTRUM_ID=WA000062
ADDUCT=[M+H]+
MS_LEVEL=MS2
PRECURSOR_MZ=221.96
IONMODE=positive
NOMINAL_MASS=221
PARENT_MASS=221.035589556
RECORD_DATE=2016.01.19 (Created 2007.08.01, modified 2011.05.06)
51.0 0.01601602
55.0 0.055055059999999996
65.0 0.47047047
66.0 0.02402402
72.0 0.00800801
73.0 0.03103103
75.0 0.00800801
77.0 0.9219219200000001
78.0 0.01201201
83.0 0.04704705
87.0 0.12112112
92.0 1.0
93.0 0.22322322
101.0 0.18018018000000002
102.0 0.01201201
103.0 0.61161161
105.0 0.01601602
115.0 0.01201201
116.0 0.035035039999999996
118.0 0.02402402
120.0 0.00800801
129.0 0.16816817
130.0 0.05905906
132.0 0.02702703
141.0 0.01201201
146.0 0.16816817
147.0 0.00800801
149.0 0.03903904
158.0 0.02002002
159.0 0.01201201
163.0 0.00800801
164.0 0.01201201
177.0 0.00800801
186.0 0.00800801
191.0 0.09009009000000001
193.0 0.02402402
207.0 0.02002002
222.0 0.09409409
END IONS

BEGIN IONS
CHARGE=1+
INCHIKEY=WYKYKTKDBLFHCY-UHFFFAOYSA-N
INSTRUMENT_TYPE=LC-ESI-QQ
INSTRUMENT=QuattroPremier XE, Waters
COLLISION_ENERGY=20 V
FORMULA=C10H8ClN3O
SMILES=NC(C=2)=C(Cl)C(=O)N(N2)c(c1)cccc1
CAS=1698-60-8
INCHI=InChI=1S/C10H8ClN3O/c11-9-8(12)6-13-14(10(9)15)7-4-2-1-3-5-7/h1-6H,12H2
AUTHOR=Nihon Waters K.K.
LICENSE=CC BY-NC
SPLASH=splash10-00di-0090000000-f8363471a053cb304fea
SUBMITTER=submitter = Nihon Waters (Nihon Waters K.K.)
SYNON_$=00in-source
COMPUTED_SMILES=O=C1C(CL)=C(N)C=NN1C=2C=CC=CC2
COMPUTED_[2M+H-H2O]+=425.063809112
COMPUTED_[2M+K]+=481.169479112
COMPUTED_[M+H]+=222.043559556
COMPUTED_[2M+NA]+=465.060949112
COMPUTED_[2M+CL]-=477.52417911199996
COMPUTED_[2M+HAC-H]-=501.115209112
COMPUTED_[M-H20-H]-=202.01719955599998
COMPUTED_[M-H]-=220.028313556
COMPUTED_[2M-H]-=441.063903112
COMPUTED_[M+NA]+=244.02535955599998
COMPUTED_[M+H-H2O]+=204.02821955599998
COMPUTED_[2M+NH4]+=460.109759112
COMPUTED_[M+CL]-=256.48858955599997
COMPUTED_[M+NH4]+=239.074169556
COMPUTED_[M+K]+=260.133889556
COMPUTED_[2M+H]+=443.079149112
COMPUTED_[M+HAC-H]-=280.079619556
FIND_PEAK=ignore rel.int. < 5
COMPUTED_SPECTRAL_ENTROPY=0.746204962390156
COMPUTED_NORMALIZED_ENTROPY=0.35884873290900454
COMPUTED_MASS_ACCURACY=376.46222742828934
COMPUTED_MASS_ERROR=-0.0835595559999831
MONA_RATING=4.166666666666666
NUM_PEAKS=8
COMPOUND_NAME=Chloridazon
SPECTRUM_ID=WA000061
ADDUCT=[M+H]+
MS_LEVEL=MS2
PRECURSOR_MZ=221.96
IONMODE=positive
NOMINAL_MASS=221
PARENT_MASS=221.035589556
RECORD_DATE=2016.01.19 (Created 2007.08.01, modified 2011.05.06)
77.0 0.00800801
92.0 0.02702703
94.0 0.01201201
104.0 0.07107107
129.0 0.00800801
207.0 0.05905906
222.0 1.0
223.0 0.02402402
END IONS

BEGIN IONS
CHARGE=1+
INCHIKEY=WYKYKTKDBLFHCY-UHFFFAOYSA-N
INSTRUMENT_TYPE=LC-ESI-QQ
INSTRUMENT=QuattroPremier XE, Waters
COLLISION_ENERGY=10 V
FORMULA=C10H8ClN3O
SMILES=NC(C=2)=C(Cl)C(=O)N(N2)c(c1)cccc1
CAS=1698-60-8
INCHI=InChI=1S/C10H8ClN3O/c11-9-8(12)6-13-14(10(9)15)7-4-2-1-3-5-7/h1-6H,12H2
AUTHOR=Nihon Waters K.K.
LICENSE=CC BY-NC
SPLASH=splash10-00di-0090000000-6f3cec349324726bc6b7
SUBMITTER=submitter = Nihon Waters (Nihon Waters K.K.)
SYNON_$=00in-source
COMPUTED_SMILES=O=C1C(CL)=C(N)C=NN1C=2C=CC=CC2
COMPUTED_[2M+H-H2O]+=425.06380911200006
COMPUTED_[2M+K]+=481.16947911200003
COMPUTED_[M+H]+=222.04355955600002
COMPUTED_[2M+NA]+=465.06094911200006
COMPUTED_[2M+CL]-=477.52417911200007
COMPUTED_[2M+HAC-H]-=501.11520911200006
COMPUTED_[M-H20-H]-=202.017199556
COMPUTED_[M-H]-=220.02831355600003
COMPUTED_[2M-H]-=441.06390311200005
COMPUTED_[M+NA]+=244.025359556
COMPUTED_[M+H-H2O]+=204.028219556
COMPUTED_[2M+NH4]+=460.10975911200006
COMPUTED_[M+CL]-=256.488589556
COMPUTED_[M+NH4]+=239.07416955600002
COMPUTED_[M+K]+=260.13388955600004
COMPUTED_[2M+H]+=443.07914911200004
COMPUTED_[M+HAC-H]-=280.079619556
FIND_PEAK=ignore rel.int. < 5
COMPUTED_SPECTRAL_ENTROPY=0.13507948833218697
COMPUTED_NORMALIZED_ENTROPY=0.19487850794266473
COMPUTED_MASS_ACCURACY=376.4622274284174
COMPUTED_MASS_ERROR=-0.08355955600001153
MONA_RATING=3.5714285714285716
NUM_PEAKS=2
COMPOUND_NAME=Chloridazon
SPECTRUM_ID=WA000060
ADDUCT=[M+H]+
MS_LEVEL=MS2
PRECURSOR_MZ=221.96
IONMODE=positive
NOMINAL_MASS=221
PARENT_MASS=221.03558955600002
RECORD_DATE=2016.01.19 (Created 2007.08.01, modified 2011.05.06)
222.0 1.0
223.0 0.03103103
END IONS

BEGIN IONS
CHARGE=1+
INCHIKEY=BDQWWOHKFDSADC-UHFFFAOYSA-N
INSTRUMENT_TYPE=LC-ESI-QQ
INSTRUMENT=QuattroPremier XE, Waters
COLLISION_ENERGY=40 V
FORMULA=C16H15Cl2NO2
SMILES=O=C(Nc(c2)cccc2)C(C)Oc(c1)c(Cl)c(C)c(Cl)c1
CAS=84496-56-0
INCHI=InChI=1S/C16H15Cl2NO2/c1-10-13(17)8-9-14(15(10)18)21-11(2)16(20)19-12-6-4-3-5-7-12/h3-9,11H,1-2H3,(H,19,20)
AUTHOR=Nihon Waters K.K.
LICENSE=CC BY-NC
SPLASH=splash10-0596-5900000000-348cc416cff072e7cc38
SUBMITTER=submitter = Nihon Waters (Nihon Waters K.K.)
SYNON_$=00in-source
COMPUTED_SMILES=CLC1=CC=C(OC(C(O)=NC=2C=CC=CC2)C)C(CL)=C1C
COMPUTED_[2M+H-H2O]+=629.08859816
COMPUTED_[2M+K]+=685.19426816
COMPUTED_[M+H]+=324.05595408
COMPUTED_[2M+NA]+=669.08573816
COMPUTED_[2M+CL]-=681.54896816
COMPUTED_[2M+HAC-H]-=705.13999816
COMPUTED_[M-H20-H]-=304.02959408
COMPUTED_[M-H]-=322.04070808
COMPUTED_[2M-H]-=645.0886921599999
COMPUTED_[M+NA]+=346.03775408
COMPUTED_[M+H-H2O]+=306.04061408
COMPUTED_[2M+NH4]+=664.13454816
COMPUTED_[M+CL]-=358.50098407999997
COMPUTED_[M+NH4]+=341.08656408
COMPUTED_[M+K]+=362.14628408
COMPUTED_[2M+H]+=647.10393816
COMPUTED_[M+HAC-H]-=382.09201408
FIND_PEAK=ignore rel.int. < 5
COMPUTED_SPECTRAL_ENTROPY=2.5833547135884625
COMPUTED_NORMALIZED_ENTROPY=0.7453986068302406
COMPUTED_MASS_ACCURACY=172.69777777775386
COMPUTED_MASS_ERROR=-0.055954079999992246
MONA_RATING=4.545454545454546
NUM_PEAKS=32
COMPOUND_NAME=Clomeprop
SPECTRUM_ID=WA000059
ADDUCT=[M+H]+
MS_LEVEL=MS2
PRECURSOR_MZ=324.0
IONMODE=positive
NOMINAL_MASS=323
PARENT_MASS=323.04798408
RECORD_DATE=2016.01.19 (Created 2007.08.01, modified 2011.05.06)
55.0 0.03103103
56.0 0.06706706999999999
66.0 0.05105105
72.0 0.02402402
77.0 0.23923924
78.0 0.08608608999999999
80.0 0.00800801
90.0 0.44744745
93.0 0.67867868
94.0 0.11411410999999999
95.0 0.00800801
103.0 0.47047047
105.0 0.63563564
106.0 0.035035039999999996
115.0 0.00800801
118.0 0.1021021
120.0 1.0
121.0 0.02002002
123.0 0.02402402
125.0 0.01201201
130.0 0.06706706999999999
133.0 0.06306306
134.0 0.00800801
139.0 0.08608608999999999
140.0 0.01201201
148.0 0.35735736
149.0 0.02402402
159.0 0.05905906
166.0 0.00800801
168.0 0.07107107
175.0 0.00800801
203.0 0.00800801
END IONS

BEGIN IONS
CHARGE=1+
INCHIKEY=BDQWWOHKFDSADC-UHFFFAOYSA-N
INSTRUMENT_TYPE=LC-ESI-QQ
INSTRUMENT=QuattroPremier XE, Waters
COLLISION_ENERGY=30 V
FORMULA=C16H15Cl2NO2
SMILES=O=C(Nc(c2)cccc2)C(C)Oc(c1)c(Cl)c(C)c(Cl)c1
CAS=84496-56-0
INCHI=InChI=1S/C16H15Cl2NO2/c1-10-13(17)8-9-14(15(10)18)21-11(2)16(20)19-12-6-4-3-5-7-12/h3-9,11H,1-2H3,(H,19,20)
AUTHOR=Nihon Waters K.K.
LICENSE=CC BY-NC
SPLASH=splash10-05fu-2900000000-4a13d270ad26ffcef58d
SUBMITTER=submitter = Nihon Waters (Nihon Waters K.K.)
SYNON_$=00in-source
COMPUTED_SMILES=CLC1=CC=C(OC(C(O)=NC=2C=CC=CC2)C)C(CL)=C1C
COMPUTED_[2M+H-H2O]+=629.08859816
COMPUTED_[2M+K]+=685.19426816
COMPUTED_[M+H]+=324.05595408
COMPUTED_[2M+NA]+=669.08573816
COMPUTED_[2M+CL]-=681.54896816
COMPUTED_[2M+HAC-H]-=705.13999816
COMPUTED_[M-H20-H]-=304.02959408
COMPUTED_[M-H]-=322.04070808
COMPUTED_[2M-H]-=645.0886921599999
COMPUTED_[M+NA]+=346.03775408
COMPUTED_[M+H-H2O]+=306.04061408
COMPUTED_[2M+NH4]+=664.13454816
COMPUTED_[M+CL]-=358.50098407999997
COMPUTED_[M+NH4]+=341.08656408
COMPUTED_[M+K]+=362.14628408
COMPUTED_[2M+H]+=647.10393816
COMPUTED_[M+HAC-H]-=382.09201408
FIND_PEAK=ignore rel.int. < 5
COMPUTED_SPECTRAL_ENTROPY=2.431293131729773
COMPUTED_NORMALIZED_ENTROPY=0.7296350281939743
COMPUTED_MASS_ACCURACY=172.69777777775386
COMPUTED_MASS_ERROR=-0.055954079999992246
MONA_RATING=4.545454545454546
NUM_PEAKS=28
COMPOUND_NAME=Clomeprop
SPECTRUM_ID=WA000058
ADDUCT=[M+H]+
MS_LEVEL=MS2
PRECURSOR_MZ=324.0
IONMODE=positive
NOMINAL_MASS=323
PARENT_MASS=323.04798408
RECORD_DATE=2016.01.19 (Created 2007.08.01, modified 2011.05.06)
55.0 0.01201201
57.0 0.02002002
65.0 0.00800801
72.0 0.00800801
77.0 0.03103103
79.0 0.02402402
91.0 0.18418418
93.0 0.4044044
94.0 0.043043040000000005
103.0 0.17617618000000002
105.0 0.6076076100000001
106.0 0.06706706999999999
117.0 0.02402402
120.0 1.0
121.0 0.02702703
130.0 0.01601602
132.0 0.04704705
133.0 0.01201201
139.0 0.11811812
140.0 0.01601602
148.0 0.40740741
149.0 0.07107107
159.0 0.02402402
166.0 0.01601602
168.0 0.10610611
169.0 0.00800801
175.0 0.04704705
203.0 0.10610611
END IONS

BEGIN IONS
CHARGE=1+
INCHIKEY=BDQWWOHKFDSADC-UHFFFAOYSA-N
INSTRUMENT_TYPE=LC-ESI-QQ
INSTRUMENT=QuattroPremier XE, Waters
COLLISION_ENERGY=20 V
FORMULA=C16H15Cl2NO2
SMILES=O=C(Nc(c2)cccc2)C(C)Oc(c1)c(Cl)c(C)c(Cl)c1
CAS=84496-56-0
INCHI=InChI=1S/C16H15Cl2NO2/c1-10-13(17)8-9-14(15(10)18)21-11(2)16(20)19-12-6-4-3-5-7-12/h3-9,11H,1-2H3,(H,19,20)
AUTHOR=Nihon Waters K.K.
LICENSE=CC BY-NC
SPLASH=splash10-0fdk-0920000000-06b7103bb542b4579bd2
SUBMITTER=submitter = Nihon Waters (Nihon Waters K.K.)
SYNON_$=00in-source
COMPUTED_SMILES=CLC1=CC=C(OC(C(O)=NC=2C=CC=CC2)C)C(CL)=C1C
COMPUTED_[2M+H-H2O]+=629.08859816
COMPUTED_[2M+K]+=685.19426816
COMPUTED_[M+H]+=324.05595408
COMPUTED_[2M+NA]+=669.08573816
COMPUTED_[2M+CL]-=681.54896816
COMPUTED_[2M+HAC-H]-=705.13999816
COMPUTED_[M-H20-H]-=304.02959408
COMPUTED_[M-H]-=322.04070808
COMPUTED_[2M-H]-=645.0886921599999
COMPUTED_[M+NA]+=346.03775408
COMPUTED_[M+H-H2O]+=306.04061408
COMPUTED_[2M+NH4]+=664.13454816
COMPUTED_[M+CL]-=358.50098407999997
COMPUTED_[M+NH4]+=341.08656408
COMPUTED_[M+K]+=362.14628408
COMPUTED_[2M+H]+=647.10393816
COMPUTED_[M+HAC-H]-=382.09201408
FIND_PEAK=ignore rel.int. < 5
COMPUTED_SPECTRAL_ENTROPY=1.980713459140783
COMPUTED_NORMALIZED_ENTROPY=0.6726963856800712
COMPUTED_MASS_ACCURACY=172.69777777775386
COMPUTED_MASS_ERROR=-0.055954079999992246
MONA_RATING=4.545454545454546
NUM_PEAKS=19
COMPOUND_NAME=Clomeprop
SPECTRUM_ID=WA000057
ADDUCT=[M+H]+
MS_LEVEL=MS2
PRECURSOR_MZ=324.0
IONMODE=positive
NOMINAL_MASS=323
PARENT_MASS=323.04798408
RECORD_DATE=2016.01.19 (Created 2007.08.01, modified 2011.05.06)
90.0 0.02002002
92.0 0.02702703
93.0 0.23123123
103.0 0.05905906
105.0 0.26226226
106.0 0.04704705
120.0 0.97997998
121.0 0.02702703
132.0 0.02002002
139.0 0.03103103
147.0 0.12512513
148.0 1.0
150.0 0.02402402
167.0 0.03103103
168.0 0.02002002
175.0 0.02702703
203.0 0.63563564
204.0 0.01601602
324.0 0.01201201
END IONS

BEGIN IONS
CHARGE=1+
INCHIKEY=BDQWWOHKFDSADC-UHFFFAOYSA-N
INSTRUMENT_TYPE=LC-ESI-QQ
INSTRUMENT=QuattroPremier XE, Waters
COLLISION_ENERGY=10 V
FORMULA=C16H15Cl2NO2
CAS=84496-56-0
SMILES=O=C(Nc(c2)cccc2)C(C)Oc(c1)c(Cl)c(C)c(Cl)c1
INCHI=InChI=1S/C16H15Cl2NO2/c1-10-13(17)8-9-14(15(10)18)21-11(2)16(20)19-12-6-4-3-5-7-12/h3-9,11H,1-2H3,(H,19,20)
AUTHOR=Nihon Waters K.K.
LICENSE=CC BY-NC
SPLASH=splash10-00di-2319000000-13abdbee1471db97897d
SUBMITTER=submitter = Nihon Waters (Nihon Waters K.K.)
SYNON_$=00in-source
COMPUTED_SMILES=CLC1=CC=C(OC(C(O)=NC=2C=CC=CC2)C)C(CL)=C1C
COMPUTED_[2M+H-H2O]+=629.0885981600001
COMPUTED_[2M+K]+=685.1942681600001
COMPUTED_[M+H]+=324.05595408000005
COMPUTED_[2M+NA]+=669.0857381600001
COMPUTED_[2M+CL]-=681.5489681600001
COMPUTED_[2M+HAC-H]-=705.1399981600001
COMPUTED_[M-H20-H]-=304.02959408000004
COMPUTED_[M-H]-=322.04070808000006
COMPUTED_[2M-H]-=645.08869216
COMPUTED_[M+NA]+=346.03775408000007
COMPUTED_[M+H-H2O]+=306.04061408000007
COMPUTED_[2M+NH4]+=664.1345481600001
COMPUTED_[M+CL]-=358.5009840800001
COMPUTED_[M+NH4]+=341.0865640800001
COMPUTED_[M+K]+=362.14628408000004
COMPUTED_[2M+H]+=647.1039381600001
COMPUTED_[M+HAC-H]-=382.09201408000007
FIND_PEAK=ignore rel.int. < 5
COMPUTED_SPECTRAL_ENTROPY=1.3700042226818197
COMPUTED_NORMALIZED_ENTROPY=0.7040428990757459
COMPUTED_MASS_ACCURACY=172.69777777792928
COMPUTED_MASS_ERROR=-0.05595408000004909
MONA_RATING=4.545454545454546
NUM_PEAKS=7
COMPOUND_NAME=Clomeprop
SPECTRUM_ID=WA000056
ADDUCT=[M+H]+
MS_LEVEL=MS2
PRECURSOR_MZ=324.0
IONMODE=positive
NOMINAL_MASS=323
PARENT_MASS=323.04798408000005
RECORD_DATE=2016.01.19 (Created 2007.08.01, modified 2011.05.06)
93.0 0.23523523999999998
120.0 0.16816817
148.0 0.16516517
149.0 0.01601602
203.0 0.16816817
324.0 1.0
325.0 0.03103103
END IONS

BEGIN IONS
CHARGE=1+
INCHIKEY=PGOOBECODWQEAB-UHFFFAOYSA-N
INSTRUMENT_TYPE=LC-ESI-QQ
INSTRUMENT=QuattroPremier XE, Waters
COLLISION_ENERGY=40 V
FORMULA=C6H8ClN5O2S
SMILES=CNC(NCc(c1)sc(Cl)n1)=N[N+1]([O-1])=O
CAS=210880-92-5
INCHI=InChI=1S/C6H8ClN5O2S/c1-8-6(11-12(13)14)10-3-4-2-9-5(7)15-4/h2H,3H2,1H3,(H2,8,10,11)
AUTHOR=Nihon Waters K.K.
LICENSE=CC BY-NC
SPLASH=splash10-03di-0900000000-645ccf1bc7072f8845a7
SUBMITTER=submitter = Nihon Waters (Nihon Waters K.K.)
SYNON_$=00in-source
COMPUTED_SMILES=O=N(=O)NC(=NC)NCC=1SC(CL)=NC1
COMPUTED_[2M+H-H2O]+=481.01007635200006
COMPUTED_[2M+K]+=537.1157463520001
COMPUTED_[M+H]+=250.01669317600002
COMPUTED_[2M+NA]+=521.007216352
COMPUTED_[2M+CL]-=533.4704463520001
COMPUTED_[2M+HAC-H]-=557.061476352
COMPUTED_[M-H20-H]-=229.990333176
COMPUTED_[M-H]-=248.00144717600003
COMPUTED_[2M-H]-=497.01017035200005
COMPUTED_[M+NA]+=271.998493176
COMPUTED_[M+H-H2O]+=232.001353176
COMPUTED_[2M+NH4]+=516.056026352
COMPUTED_[M+CL]-=284.461723176
COMPUTED_[M+NH4]+=267.047303176
COMPUTED_[M+K]+=288.10702317600004
COMPUTED_[2M+H]+=499.02541635200004
COMPUTED_[M+HAC-H]-=308.052753176
FIND_PEAK=ignore rel.int. < 5
COMPUTED_SPECTRAL_ENTROPY=1.9009780127328204
COMPUTED_NORMALIZED_ENTROPY=0.5981579023551952
COMPUTED_MASS_ACCURACY=226.80899343899114
COMPUTED_MASS_ERROR=-0.056693176000010226
MONA_RATING=4.545454545454546
NUM_PEAKS=24
COMPOUND_NAME=Clothianidin
SPECTRUM_ID=WA000051
ADDUCT=[M+H]+
MS_LEVEL=MS2
PRECURSOR_MZ=249.96
IONMODE=positive
NOMINAL_MASS=249
PARENT_MASS=249.00872317600002
RECORD_DATE=2016.01.19 (Created 2007.08.01, modified 2011.05.06)
101.0 0.01601602
107.0 0.01201201
108.0 0.06306306
110.0 1.0
111.0 0.07107107
113.0 0.8238238200000001
114.0 0.01201201
118.0 0.00800801
119.0 0.11411410999999999
121.0 0.00800801
124.0 0.01601602
126.0 0.043043040000000005
128.0 0.01201201
132.0 0.5885885900000001
133.0 0.05905906
138.0 0.00800801
142.0 0.01601602
145.0 0.00800801
147.0 0.05905906
153.0 0.02402402
167.0 0.01601602
169.0 0.02002002
172.0 0.01601602
175.0 0.00800801
END IONS

BEGIN IONS
CHARGE=1+
INCHIKEY=PGOOBECODWQEAB-UHFFFAOYSA-N
INSTRUMENT_TYPE=LC-ESI-QQ
INSTRUMENT=QuattroPremier XE, Waters
COLLISION_ENERGY=30 V
FORMULA=C6H8ClN5O2S
SMILES=CNC(NCc(c1)sc(Cl)n1)=N[N+1]([O-1])=O
CAS=210880-92-5
INCHI=InChI=1S/C6H8ClN5O2S/c1-8-6(11-12(13)14)10-3-4-2-9-5(7)15-4/h2H,3H2,1H3,(H2,8,10,11)
AUTHOR=Nihon Waters K.K.
LICENSE=CC BY-NC
SPLASH=splash10-03e9-0900000000-319c9520a18bb6866d79
SUBMITTER=submitter = Nihon Waters (Nihon Waters K.K.)
SYNON_$=00in-source
COMPUTED_SMILES=O=N(=O)NC(=NC)NCC=1SC(CL)=NC1
COMPUTED_[2M+H-H2O]+=481.01007635200006
COMPUTED_[2M+K]+=537.1157463520001
COMPUTED_[M+H]+=250.01669317600002
COMPUTED_[2M+NA]+=521.007216352
COMPUTED_[2M+CL]-=533.4704463520001
COMPUTED_[2M+HAC-H]-=557.061476352
COMPUTED_[M-H20-H]-=229.990333176
COMPUTED_[M-H]-=248.00144717600003
COMPUTED_[2M-H]-=497.01017035200005
COMPUTED_[M+NA]+=271.998493176
COMPUTED_[M+H-H2O]+=232.001353176
COMPUTED_[2M+NH4]+=516.056026352
COMPUTED_[M+CL]-=284.461723176
COMPUTED_[M+NH4]+=267.047303176
COMPUTED_[M+K]+=288.10702317600004
COMPUTED_[2M+H]+=499.02541635200004
COMPUTED_[M+HAC-H]-=308.052753176
FIND_PEAK=ignore rel.int. < 5
COMPUTED_SPECTRAL_ENTROPY=1.8744914784096567
COMPUTED_NORMALIZED_ENTROPY=0.6156931068017779
COMPUTED_MASS_ACCURACY=226.80899343899114
COMPUTED_MASS_ERROR=-0.056693176000010226
MONA_RATING=4.545454545454546
NUM_PEAKS=21
COMPOUND_NAME=Clothianidin
SPECTRUM_ID=WA000050
ADDUCT=[M+H]+
MS_LEVEL=MS2
PRECURSOR_MZ=249.96
IONMODE=positive
NOMINAL_MASS=249
PARENT_MASS=249.00872317600002
RECORD_DATE=2016.01.19 (Created 2007.08.01, modified 2011.05.06)
100.0 0.00800801
108.0 0.02002002
110.0 0.83183183
111.0 0.12112112
113.0 0.91791792
114.0 0.01601602
118.0 0.00800801
119.0 0.055055059999999996
125.0 0.02002002
126.0 0.02402402
132.0 1.0
133.0 0.03103103
142.0 0.03903904
145.0 0.00800801
147.0 0.07107107
148.0 0.01201201
153.0 0.043043040000000005
167.0 0.01601602
169.0 0.16116116000000003
172.0 0.01201201
175.0 0.02702703
END IONS

BEGIN IONS
CHARGE=1+
INCHIKEY=PGOOBECODWQEAB-UHFFFAOYSA-N
INSTRUMENT_TYPE=LC-ESI-QQ
INSTRUMENT=QuattroPremier XE, Waters
COLLISION_ENERGY=20 V
FORMULA=C6H8ClN5O2S
SMILES=CNC(NCc(c1)sc(Cl)n1)=N[N+1]([O-1])=O
CAS=210880-92-5
INCHI=InChI=1S/C6H8ClN5O2S/c1-8-6(11-12(13)14)10-3-4-2-9-5(7)15-4/h2H,3H2,1H3,(H2,8,10,11)
AUTHOR=Nihon Waters K.K.
LICENSE=CC BY-NC
SPLASH=splash10-02u0-0900000000-c422082c73e9f46c2713
SUBMITTER=submitter = Nihon Waters (Nihon Waters K.K.)
SYNON_$=00in-source
COMPUTED_SMILES=O=N(=O)NC(=NC)NCC=1SC(CL)=NC1
COMPUTED_[2M+H-H2O]+=481.010076352
COMPUTED_[2M+K]+=537.115746352
COMPUTED_[M+H]+=250.016693176
COMPUTED_[2M+NA]+=521.007216352
COMPUTED_[2M+CL]-=533.470446352
COMPUTED_[2M+HAC-H]-=557.061476352
COMPUTED_[M-H20-H]-=229.99033317599998
COMPUTED_[M-H]-=248.001447176
COMPUTED_[2M-H]-=497.010170352
COMPUTED_[M+NA]+=271.998493176
COMPUTED_[M+H-H2O]+=232.00135317599998
COMPUTED_[2M+NH4]+=516.056026352
COMPUTED_[M+CL]-=284.46172317599996
COMPUTED_[M+NH4]+=267.047303176
COMPUTED_[M+K]+=288.107023176
COMPUTED_[2M+H]+=499.025416352
COMPUTED_[M+HAC-H]-=308.052753176
FIND_PEAK=ignore rel.int. < 5
COMPUTED_SPECTRAL_ENTROPY=1.7284128762688762
COMPUTED_NORMALIZED_ENTROPY=0.6100539092458056
COMPUTED_MASS_ACCURACY=226.80899343887745
COMPUTED_MASS_ERROR=-0.056693175999981804
MONA_RATING=4.545454545454546
NUM_PEAKS=17
COMPOUND_NAME=Clothianidin
SPECTRUM_ID=WA000049
ADDUCT=[M+H]+
MS_LEVEL=MS2
PRECURSOR_MZ=249.96
IONMODE=positive
NOMINAL_MASS=249
PARENT_MASS=249.008723176
RECORD_DATE=2016.01.19 (Created 2007.08.01, modified 2011.05.06)
110.0 0.28228228
111.0 0.01601602
113.0 0.42342342
119.0 0.01601602
126.0 0.01201201
129.0 0.01201201
132.0 0.94094094
133.0 0.01201201
142.0 0.02702703
147.0 0.05905906
148.0 0.02002002
153.0 0.01601602
167.0 0.04704705
169.0 1.0
170.0 0.01601602
172.0 0.02002002
175.0 0.043043040000000005
END IONS

BEGIN IONS
CHARGE=1+
INCHIKEY=PGOOBECODWQEAB-UHFFFAOYSA-N
INSTRUMENT_TYPE=LC-ESI-QQ
INSTRUMENT=QuattroPremier XE, Waters
COLLISION_ENERGY=10 V
FORMULA=C6H8ClN5O2S
SMILES=CNC(NCc(c1)sc(Cl)n1)=N[N+1]([O-1])=O
CAS=210880-92-5
INCHI=InChI=1S/C6H8ClN5O2S/c1-8-6(11-12(13)14)10-3-4-2-9-5(7)15-4/h2H,3H2,1H3,(H2,8,10,11)
AUTHOR=Nihon Waters K.K.
LICENSE=CC BY-NC
SPLASH=splash10-014i-0920000000-5d130b8b978272611c5f
SUBMITTER=submitter = Nihon Waters (Nihon Waters K.K.)
SYNON_$=00in-source
COMPUTED_SMILES=O=N(=O)NC(=NC)NCC=1SC(CL)=NC1
COMPUTED_[2M+H-H2O]+=481.010076352
COMPUTED_[2M+K]+=537.115746352
COMPUTED_[M+H]+=250.016693176
COMPUTED_[2M+NA]+=521.007216352
COMPUTED_[2M+CL]-=533.470446352
COMPUTED_[2M+HAC-H]-=557.061476352
COMPUTED_[M-H20-H]-=229.99033317599998
COMPUTED_[M-H]-=248.001447176
COMPUTED_[2M-H]-=497.010170352
COMPUTED_[M+NA]+=271.998493176
COMPUTED_[M+H-H2O]+=232.00135317599998
COMPUTED_[2M+NH4]+=516.056026352
COMPUTED_[M+CL]-=284.46172317599996
COMPUTED_[M+NH4]+=267.047303176
COMPUTED_[M+K]+=288.107023176
COMPUTED_[2M+H]+=499.025416352
COMPUTED_[M+HAC-H]-=308.052753176
FIND_PEAK=ignore rel.int. < 5
COMPUTED_SPECTRAL_ENTROPY=1.5320831140929798
COMPUTED_NORMALIZED_ENTROPY=0.5657513710304938
COMPUTED_MASS_ACCURACY=226.80899343887745
COMPUTED_MASS_ERROR=-0.056693175999981804
MONA_RATING=4.545454545454546
NUM_PEAKS=15
COMPOUND_NAME=Clothianidin
SPECTRUM_ID=WA000048
ADDUCT=[M+H]+
MS_LEVEL=MS2
PRECURSOR_MZ=249.96
IONMODE=positive
NOMINAL_MASS=249
PARENT_MASS=249.008723176
RECORD_DATE=2016.01.19 (Created 2007.08.01, modified 2011.05.06)
110.0 0.00800801
112.0 0.02002002
129.0 0.00800801
131.0 0.48648649
147.0 0.00800801
167.0 0.09409409
169.0 1.0
170.0 0.01601602
173.0 0.00800801
175.0 0.00800801
204.0 0.043043040000000005
206.0 0.04704705
220.0 0.01201201
250.0 0.32132131999999997
251.0 0.01201201
END IONS

BEGIN IONS
CHARGE=1+
INCHIKEY=BBKDWPHJZANJGB-UHFFFAOYSA-N
INSTRUMENT_TYPE=LC-ESI-QQ
INSTRUMENT=QuattroPremier XE, Waters
COLLISION_ENERGY=30 V
FORMULA=C22H21ClN2O5
SMILES=O=C(OCC(C4)OCC4)C(C)Oc(c3)ccc(c3)Oc(c1)nc(c2)c(cc(Cl)c2)n1
CAS=119738-06-6
INCHI=InChI=1S/C22H21ClN2O5/c1-14(22(26)28-13-18-3-2-10-27-18)29-16-5-7-17(8-6-16)30-21-12-24-20-11-15(23)4-9-19(20)25-21/h4-9,11-12,14,18H,2-3,10,13H2,1H3
AUTHOR=Nihon Waters K.K.
LICENSE=CC BY-NC
SPLASH=splash10-000j-9050000000-de09b1b9dcf985d94648
SUBMITTER=submitter = Nihon Waters (Nihon Waters K.K.)
SYNON_$=00in-source
COMPUTED_SMILES=O=C(OCC1OCCC1)C(OC2=CC=C(OC3=NC4=CC=C(CL)C=C4N=C3)C=C2)C
COMPUTED_[2M+H-H2O]+=839.220428904
COMPUTED_[2M+K]+=895.326098904
COMPUTED_[M+H]+=429.121869452
COMPUTED_[2M+NA]+=879.217568904
COMPUTED_[2M+CL]-=891.680798904
COMPUTED_[2M+HAC-H]-=915.271828904
COMPUTED_[M-H20-H]-=409.095509452
COMPUTED_[M-H]-=427.106623452
COMPUTED_[2M-H]-=855.220522904
COMPUTED_[M+NA]+=451.103669452
COMPUTED_[M+H-H2O]+=411.106529452
COMPUTED_[2M+NH4]+=874.266378904
COMPUTED_[M+CL]-=463.56689945200003
COMPUTED_[M+NH4]+=446.152479452
COMPUTED_[M+K]+=467.212199452
COMPUTED_[2M+H]+=857.235768904
COMPUTED_[M+HAC-H]-=487.157929452
FIND_PEAK=ignore rel.int. < 5
COMPUTED_SPECTRAL_ENTROPY=1.7101499708702321
COMPUTED_NORMALIZED_ENTROPY=0.5708620846953701
COMPUTED_MASS_ACCURACY=50.96586343504033
COMPUTED_MASS_ERROR=-0.02186945199997581
MONA_RATING=4.545454545454546
NUM_PEAKS=20
COMPOUND_NAME=Quizalofop-p-tefuryl
SPECTRUM_ID=WA000043
ADDUCT=[M+H]+
MS_LEVEL=MS2
PRECURSOR_MZ=429.1
IONMODE=positive
NOMINAL_MASS=428
PARENT_MASS=428.113899452
RECORD_DATE=2016.01.19 (Created 2007.08.01, modified 2011.05.06)
55.0 0.00800801
57.0 0.12112112
67.0 0.27427427000000004
85.0 1.0
86.0 0.01201201
91.0 0.08208208
103.0 0.00800801
119.0 0.00800801
129.0 0.02402402
236.0 0.01601602
243.0 0.01201201
254.0 0.00800801
271.0 0.06706706999999999
272.0 0.00800801
281.0 0.00800801
299.0 0.84684685
300.0 0.02702703
327.0 0.00800801
345.0 0.02002002
429.0 0.035035039999999996
END IONS

BEGIN IONS
CHARGE=1+
INCHIKEY=BBKDWPHJZANJGB-UHFFFAOYSA-N
INSTRUMENT_TYPE=LC-ESI-QQ
INSTRUMENT=QuattroPremier XE, Waters
COLLISION_ENERGY=20 V
FORMULA=C22H21ClN2O5
SMILES=O=C(OCC(C4)OCC4)C(C)Oc(c3)ccc(c3)Oc(c1)nc(c2)c(cc(Cl)c2)n1
CAS=119738-06-6
INCHI=InChI=1S/C22H21ClN2O5/c1-14(22(26)28-13-18-3-2-10-27-18)29-16-5-7-17(8-6-16)30-21-12-24-20-11-15(23)4-9-19(20)25-21/h4-9,11-12,14,18H,2-3,10,13H2,1H3
AUTHOR=Nihon Waters K.K.
LICENSE=CC BY-NC
SPLASH=splash10-002r-9030700000-052a2e236a3fedff1805
SUBMITTER=submitter = Nihon Waters (Nihon Waters K.K.)
SYNON_$=00in-source
COMPUTED_SMILES=O=C(OCC1OCCC1)C(OC2=CC=C(OC3=NC4=CC=C(CL)C=C4N=C3)C=C2)C
COMPUTED_[2M+H-H2O]+=839.220428904
COMPUTED_[2M+K]+=895.326098904
COMPUTED_[M+H]+=429.121869452
COMPUTED_[2M+NA]+=879.217568904
COMPUTED_[2M+CL]-=891.680798904
COMPUTED_[2M+HAC-H]-=915.271828904
COMPUTED_[M-H20-H]-=409.095509452
COMPUTED_[M-H]-=427.106623452
COMPUTED_[2M-H]-=855.220522904
COMPUTED_[M+NA]+=451.103669452
COMPUTED_[M+H-H2O]+=411.106529452
COMPUTED_[2M+NH4]+=874.266378904
COMPUTED_[M+CL]-=463.56689945200003
COMPUTED_[M+NH4]+=446.152479452
COMPUTED_[M+K]+=467.212199452
COMPUTED_[2M+H]+=857.235768904
COMPUTED_[M+HAC-H]-=487.157929452
FIND_PEAK=ignore rel.int. < 5
COMPUTED_SPECTRAL_ENTROPY=1.4697635300827347
COMPUTED_NORMALIZED_ENTROPY=0.612938999778545
COMPUTED_MASS_ACCURACY=50.96586343504033
COMPUTED_MASS_ERROR=-0.02186945199997581
MONA_RATING=4.545454545454546
NUM_PEAKS=11
COMPOUND_NAME=Quizalofop-p-tefuryl
SPECTRUM_ID=WA000042
ADDUCT=[M+H]+
MS_LEVEL=MS2
PRECURSOR_MZ=429.1
IONMODE=positive
NOMINAL_MASS=428
PARENT_MASS=428.113899452
RECORD_DATE=2016.01.19 (Created 2007.08.01, modified 2011.05.06)
57.0 0.02702703
67.0 0.07407407
85.0 1.0
86.0 0.00800801
129.0 0.09809810000000001
299.0 0.4044044
300.0 0.00800801
327.0 0.00800801
345.0 0.02402402
429.0 0.9019019
430.0 0.05105105
END IONS

BEGIN IONS
CHARGE=1+
INCHIKEY=BBKDWPHJZANJGB-UHFFFAOYSA-N
INSTRUMENT_TYPE=LC-ESI-QQ
INSTRUMENT=QuattroPremier XE, Waters
COLLISION_ENERGY=10 V
FORMULA=C22H21ClN2O5
SMILES=O=C(OCC(C4)OCC4)C(C)Oc(c3)ccc(c3)Oc(c1)nc(c2)c(cc(Cl)c2)n1
CAS=119738-06-6
INCHI=InChI=1S/C22H21ClN2O5/c1-14(22(26)28-13-18-3-2-10-27-18)29-16-5-7-17(8-6-16)30-21-12-24-20-11-15(23)4-9-19(20)25-21/h4-9,11-12,14,18H,2-3,10,13H2,1H3
AUTHOR=Nihon Waters K.K.
LICENSE=CC BY-NC
SPLASH=splash10-004i-0000900000-d23b92ed2a1c8feb158e
SUBMITTER=submitter = Nihon Waters (Nihon Waters K.K.)
SYNON_$=00in-source
COMPUTED_SMILES=O=C(OCC1OCCC1)C(OC2=CC=C(OC3=NC4=CC=C(CL)C=C4N=C3)C=C2)C
COMPUTED_[2M+H-H2O]+=839.220428904
COMPUTED_[2M+K]+=895.326098904
COMPUTED_[M+H]+=429.121869452
COMPUTED_[2M+NA]+=879.217568904
COMPUTED_[2M+CL]-=891.680798904
COMPUTED_[2M+HAC-H]-=915.271828904
COMPUTED_[M-H20-H]-=409.095509452
COMPUTED_[M-H]-=427.106623452
COMPUTED_[2M-H]-=855.220522904
COMPUTED_[M+NA]+=451.103669452
COMPUTED_[M+H-H2O]+=411.106529452
COMPUTED_[2M+NH4]+=874.266378904
COMPUTED_[M+CL]-=463.56689945200003
COMPUTED_[M+NH4]+=446.152479452
COMPUTED_[M+K]+=467.212199452
COMPUTED_[2M+H]+=857.235768904
COMPUTED_[M+HAC-H]-=487.157929452
FIND_PEAK=ignore rel.int. < 5
COMPUTED_SPECTRAL_ENTROPY=0.22653323601335956
COMPUTED_NORMALIZED_ENTROPY=0.20619943755407522
COMPUTED_MASS_ACCURACY=50.96586343504033
COMPUTED_MASS_ERROR=-0.02186945199997581
MONA_RATING=4.545454545454546
NUM_PEAKS=3
COMPOUND_NAME=Quizalofop-p-tefuryl
SPECTRUM_ID=WA000041
ADDUCT=[M+H]+
MS_LEVEL=MS2
PRECURSOR_MZ=429.1
IONMODE=positive
NOMINAL_MASS=428
PARENT_MASS=428.113899452
RECORD_DATE=2016.01.19 (Created 2007.08.01, modified 2011.05.06)
85.0 0.00800801
429.0 1.0
430.0 0.04704705
END IONS

BEGIN IONS
CHARGE=1+
INCHIKEY=AMEKQAFGQBKLKX-UHFFFAOYSA-N
INSTRUMENT_TYPE=LC-ESI-QQ
INSTRUMENT=QuattroPremier XE, Waters
COLLISION_ENERGY=40 V
FORMULA=C12H13NO4S
SMILES=c(c2)ccc(c2)NC(=O)C(=C(C)1)S(=O)(=O)CCO1
CAS=5259-88-1
INCHI=InChI=1S/C12H13NO4S/c1-9-11(18(15,16)8-7-17-9)12(14)13-10-5-3-2-4-6-10/h2-6H,7-8H2,1H3,(H,13,14)
AUTHOR=Nihon Waters K.K.
LICENSE=CC BY-NC
SPLASH=splash10-004j-0900000000-7eeffe56a4f758161d2f
SUBMITTER=submitter = Nihon Waters (Nihon Waters K.K.)
SYNON_$=00in-source
COMPUTED_SMILES=O=S1(=O)C(C(O)=NC=2C=CC=CC2)=C(OCC1)C
COMPUTED_[2M+H-H2O]+=517.1056877919999
COMPUTED_[2M+K]+=573.211357792
COMPUTED_[M+H]+=268.064498896
COMPUTED_[2M+NA]+=557.102827792
COMPUTED_[2M+CL]-=569.5660577919999
COMPUTED_[2M+HAC-H]-=593.157087792
COMPUTED_[M-H20-H]-=248.03813889599996
COMPUTED_[M-H]-=266.049252896
COMPUTED_[2M-H]-=533.1057817919999
COMPUTED_[M+NA]+=290.046298896
COMPUTED_[M+H-H2O]+=250.04915889599997
COMPUTED_[2M+NH4]+=552.151637792
COMPUTED_[M+CL]-=302.509528896
COMPUTED_[M+NH4]+=285.095108896
COMPUTED_[M+K]+=306.15482889599997
COMPUTED_[2M+H]+=535.121027792
COMPUTED_[M+HAC-H]-=326.100558896
FIND_PEAK=ignore rel.int. < 5
COMPUTED_SPECTRAL_ENTROPY=2.216384129653353
COMPUTED_NORMALIZED_ENTROPY=0.6516481935459484
COMPUTED_MASS_ACCURACY=16.783167947372878
COMPUTED_MASS_ERROR=-0.004498895999972774
MONA_RATING=4.545454545454546
NUM_PEAKS=30
COMPOUND_NAME=Oxycarboxin
SPECTRUM_ID=WA000036
ADDUCT=[M+H]+
MS_LEVEL=MS2
PRECURSOR_MZ=268.06
IONMODE=positive
NOMINAL_MASS=267
PARENT_MASS=267.056528896
RECORD_DATE=2016.01.19 (Created 2007.08.01, modified 2011.05.06)
102.0 0.01201201
103.0 0.02402402
104.0 0.31331331
105.0 0.42742743
114.0 0.06706706999999999
115.0 0.21521522
116.0 0.03103103
120.0 0.03103103
128.0 0.00800801
129.0 0.02702703
130.0 0.01601602
132.0 0.06306306
133.0 0.12112112
134.0 0.035035039999999996
135.0 0.02702703
140.0 0.00800801
141.0 0.00800801
146.0 0.07407407
147.0 0.995996
152.0 0.01201201
156.0 0.01201201
159.0 0.02002002
173.0 0.01201201
174.0 0.035035039999999996
175.0 1.0
176.0 0.01201201
179.0 0.01601602
181.0 0.01201201
198.0 0.02002002
207.0 0.00800801
END IONS

BEGIN IONS
CHARGE=1+
INCHIKEY=AMEKQAFGQBKLKX-UHFFFAOYSA-N
INSTRUMENT_TYPE=LC-ESI-QQ
INSTRUMENT=QuattroPremier XE, Waters
COLLISION_ENERGY=30 V
FORMULA=C12H13NO4S
SMILES=c(c2)ccc(c2)NC(=O)C(=C(C)1)S(=O)(=O)CCO1
CAS=5259-88-1
INCHI=InChI=1S/C12H13NO4S/c1-9-11(18(15,16)8-7-17-9)12(14)13-10-5-3-2-4-6-10/h2-6H,7-8H2,1H3,(H,13,14)
AUTHOR=Nihon Waters K.K.
LICENSE=CC BY-NC
SPLASH=splash10-004j-0900000000-144e13f8844677546231
SUBMITTER=submitter = Nihon Waters (Nihon Waters K.K.)
SYNON_$=00in-source
COMPUTED_SMILES=O=S1(=O)C(C(O)=NC=2C=CC=CC2)=C(OCC1)C
COMPUTED_[2M+H-H2O]+=517.1056877919999
COMPUTED_[2M+K]+=573.211357792
COMPUTED_[M+H]+=268.064498896
COMPUTED_[2M+NA]+=557.102827792
COMPUTED_[2M+CL]-=569.5660577919999
COMPUTED_[2M+HAC-H]-=593.157087792
COMPUTED_[M-H20-H]-=248.03813889599996
COMPUTED_[M-H]-=266.049252896
COMPUTED_[2M-H]-=533.1057817919999
COMPUTED_[M+NA]+=290.046298896
COMPUTED_[M+H-H2O]+=250.04915889599997
COMPUTED_[2M+NH4]+=552.151637792
COMPUTED_[M+CL]-=302.509528896
COMPUTED_[M+NH4]+=285.095108896
COMPUTED_[M+K]+=306.15482889599997
COMPUTED_[2M+H]+=535.121027792
COMPUTED_[M+HAC-H]-=326.100558896
FIND_PEAK=ignore rel.int. < 5
COMPUTED_SPECTRAL_ENTROPY=1.2193572849037038
COMPUTED_NORMALIZED_ENTROPY=0.49070546976391777
COMPUTED_MASS_ACCURACY=16.783167947372878
COMPUTED_MASS_ERROR=-0.004498895999972774
MONA_RATING=4.545454545454546
NUM_PEAKS=12
COMPOUND_NAME=Oxycarboxin
SPECTRUM_ID=WA000035
ADDUCT=[M+H]+
MS_LEVEL=MS2
PRECURSOR_MZ=268.06
IONMODE=positive
NOMINAL_MASS=267
PARENT_MASS=267.056528896
RECORD_DATE=2016.01.19 (Created 2007.08.01, modified 2011.05.06)
104.0 0.01201201
105.0 0.03903904
116.0 0.00800801
120.0 0.01601602
132.0 0.00800801
133.0 0.035035039999999996
146.0 0.02402402
147.0 0.58458458
148.0 0.00800801
174.0 0.06706706999999999
175.0 1.0
176.0 0.01601602
END IONS

BEGIN IONS
CHARGE=1+
INCHIKEY=AMEKQAFGQBKLKX-UHFFFAOYSA-N
INSTRUMENT_TYPE=LC-ESI-QQ
INSTRUMENT=QuattroPremier XE, Waters
COLLISION_ENERGY=20 V
FORMULA=C12H13NO4S
SMILES=c(c2)ccc(c2)NC(=O)C(=C(C)1)S(=O)(=O)CCO1
CAS=5259-88-1
INCHI=InChI=1S/C12H13NO4S/c1-9-11(18(15,16)8-7-17-9)12(14)13-10-5-3-2-4-6-10/h2-6H,7-8H2,1H3,(H,13,14)
AUTHOR=Nihon Waters K.K.
LICENSE=CC BY-NC
SPLASH=splash10-004i-0900000000-2874a8ed8c0991b100e4
SUBMITTER=submitter = Nihon Waters (Nihon Waters K.K.)
SYNON_$=00in-source
COMPUTED_SMILES=O=S1(=O)C(C(O)=NC=2C=CC=CC2)=C(OCC1)C
COMPUTED_[2M+H-H2O]+=517.105687792
COMPUTED_[2M+K]+=573.2113577920001
COMPUTED_[M+H]+=268.06449889600003
COMPUTED_[2M+NA]+=557.1028277920001
COMPUTED_[2M+CL]-=569.566057792
COMPUTED_[2M+HAC-H]-=593.1570877920001
COMPUTED_[M-H20-H]-=248.03813889600002
COMPUTED_[M-H]-=266.04925289600004
COMPUTED_[2M-H]-=533.105781792
COMPUTED_[M+NA]+=290.04629889600005
COMPUTED_[M+H-H2O]+=250.04915889600002
COMPUTED_[2M+NH4]+=552.1516377920001
COMPUTED_[M+CL]-=302.509528896
COMPUTED_[M+NH4]+=285.09510889600006
COMPUTED_[M+K]+=306.154828896
COMPUTED_[2M+H]+=535.1210277920001
COMPUTED_[M+HAC-H]-=326.10055889600005
FIND_PEAK=ignore rel.int. < 5
COMPUTED_SPECTRAL_ENTROPY=0.6621765981566278
COMPUTED_NORMALIZED_ENTROPY=0.3402914561487315
COMPUTED_MASS_ACCURACY=16.783167947584936
COMPUTED_MASS_ERROR=-0.004498896000029617
MONA_RATING=4.545454545454546
NUM_PEAKS=7
COMPOUND_NAME=Oxycarboxin
SPECTRUM_ID=WA000034
ADDUCT=[M+H]+
MS_LEVEL=MS2
PRECURSOR_MZ=268.06
IONMODE=positive
NOMINAL_MASS=267
PARENT_MASS=267.05652889600003
RECORD_DATE=2016.01.19 (Created 2007.08.01, modified 2011.05.06)
105.0 0.02002002
133.0 0.00800801
146.0 0.00800801
147.0 0.11411410999999999
174.0 0.03103103
175.0 1.0
176.0 0.01601602
END IONS

BEGIN IONS
CHARGE=1+
INCHIKEY=AMEKQAFGQBKLKX-UHFFFAOYSA-N
INSTRUMENT_TYPE=LC-ESI-QQ
INSTRUMENT=QuattroPremier XE, Waters
COLLISION_ENERGY=10 V
FORMULA=C12H13NO4S
SMILES=c(c2)ccc(c2)NC(=O)C(=C(C)1)S(=O)(=O)CCO1
CAS=5259-88-1
INCHI=InChI=1S/C12H13NO4S/c1-9-11(18(15,16)8-7-17-9)12(14)13-10-5-3-2-4-6-10/h2-6H,7-8H2,1H3,(H,13,14)
AUTHOR=Nihon Waters K.K.
LICENSE=CC BY-NC
SPLASH=splash10-014i-0390000000-60b7694a02d7f78084a1
SUBMITTER=submitter = Nihon Waters (Nihon Waters K.K.)
SYNON_$=00in-source
COMPUTED_SMILES=O=S1(=O)C(C(O)=NC=2C=CC=CC2)=C(OCC1)C
COMPUTED_[2M+H-H2O]+=517.105687792
COMPUTED_[2M+K]+=573.2113577920001
COMPUTED_[M+H]+=268.06449889600003
COMPUTED_[2M+NA]+=557.1028277920001
COMPUTED_[2M+CL]-=569.566057792
COMPUTED_[2M+HAC-H]-=593.1570877920001
COMPUTED_[M-H20-H]-=248.03813889600002
COMPUTED_[M-H]-=266.04925289600004
COMPUTED_[2M-H]-=533.105781792
COMPUTED_[M+NA]+=290.04629889600005
COMPUTED_[M+H-H2O]+=250.04915889600002
COMPUTED_[2M+NH4]+=552.1516377920001
COMPUTED_[M+CL]-=302.509528896
COMPUTED_[M+NH4]+=285.09510889600006
COMPUTED_[M+K]+=306.154828896
COMPUTED_[2M+H]+=535.1210277920001
COMPUTED_[M+HAC-H]-=326.10055889600005
FIND_PEAK=ignore rel.int. < 5
COMPUTED_SPECTRAL_ENTROPY=0.9409843036464303
COMPUTED_NORMALIZED_ENTROPY=0.4835702738398547
COMPUTED_MASS_ACCURACY=16.783167947584936
COMPUTED_MASS_ERROR=-0.004498896000029617
MONA_RATING=4.545454545454546
NUM_PEAKS=7
COMPOUND_NAME=Oxycarboxin
SPECTRUM_ID=WA000033
ADDUCT=[M+H]+
MS_LEVEL=MS2
PRECURSOR_MZ=268.06
IONMODE=positive
NOMINAL_MASS=267
PARENT_MASS=267.05652889600003
RECORD_DATE=2016.01.19 (Created 2007.08.01, modified 2011.05.06)
120.0 0.035035039999999996
174.0 0.00800801
175.0 0.40740741
187.0 0.01201201
267.0 0.02402402
268.0 1.0
269.0 0.03903904
END IONS

BEGIN IONS
CHARGE=1+
INCHIKEY=YWTYJOPNNQFBPC-UHFFFAOYSA-N
INSTRUMENT_TYPE=LC-ESI-QQ
INSTRUMENT=QuattroPremier XE, Waters
COLLISION_ENERGY=30 V
FORMULA=C9H10ClN5O2
SMILES=O=N(=O)N=C(N2)N(CC2)Cc(c1)cnc(Cl)c1
CAS=10827-78-9
INCHI=InChI=1S/C9H10ClN5O2/c10-8-2-1-7(5-12-8)6-14-4-3-11-9(14)13-15(16)17/h1-2,5H,3-4,6H2,(H,11,13)
AUTHOR=Nihon Waters K.K.
LICENSE=CC BY-NC
SPLASH=splash10-056r-0940000000-c1ca765f3071e230cedd
SUBMITTER=submitter = Nihon Waters (Nihon Waters K.K.)
SYNON_$=00in-source
COMPUTED_SMILES=O=N(=O)NC1=NCCN1CC2=CN=C(CL)C=C2
COMPUTED_[2M+H-H2O]+=493.09723448000005
COMPUTED_[2M+K]+=549.20290448
COMPUTED_[M+H]+=256.06027224
COMPUTED_[2M+NA]+=533.09437448
COMPUTED_[2M+CL]-=545.55760448
COMPUTED_[2M+HAC-H]-=569.14863448
COMPUTED_[M-H20-H]-=236.03391224
COMPUTED_[M-H]-=254.04502624000003
COMPUTED_[2M-H]-=509.09732848000004
COMPUTED_[M+NA]+=278.04207224000004
COMPUTED_[M+H-H2O]+=238.04493224
COMPUTED_[2M+NH4]+=528.1431844800001
COMPUTED_[M+CL]-=290.50530224
COMPUTED_[M+NH4]+=273.09088224000004
COMPUTED_[M+K]+=294.15060224
COMPUTED_[2M+H]+=511.11257448000003
COMPUTED_[M+HAC-H]-=314.09633224000004
FIND_PEAK=ignore rel.int. < 5
COMPUTED_SPECTRAL_ENTROPY=1.629786245658048
COMPUTED_NORMALIZED_ENTROPY=0.5197860794570431
COMPUTED_MASS_ACCURACY=157.30114834792482
COMPUTED_MASS_ERROR=-0.04027224000003571
MONA_RATING=4.545454545454546
NUM_PEAKS=23
COMPOUND_NAME=Imidacloprid
SPECTRUM_ID=WA000027
ADDUCT=[M+H]+
MS_LEVEL=MS2
PRECURSOR_MZ=256.02
IONMODE=positive
NOMINAL_MASS=255
PARENT_MASS=255.05230224000002
RECORD_DATE=2016.01.19 (Created 2007.08.01, modified 2011.05.06)
126.0 0.04704705
127.0 0.00800801
128.0 0.13713714
132.0 0.00800801
133.0 0.00800801
141.0 0.00800801
146.0 0.03103103
147.0 0.01601602
151.0 0.01601602
159.0 0.00800801
166.0 0.02002002
167.0 0.00800801
172.0 0.01201201
173.0 0.035035039999999996
175.0 1.0
176.0 0.02402402
181.0 0.01601602
193.0 0.00800801
194.0 0.00800801
208.0 0.01201201
209.0 0.63163163
210.0 0.02702703
212.0 0.01201201
END IONS

BEGIN IONS
CHARGE=1+
INCHIKEY=YWTYJOPNNQFBPC-UHFFFAOYSA-N
INSTRUMENT_TYPE=LC-ESI-QQ
INSTRUMENT=QuattroPremier XE, Waters
COLLISION_ENERGY=20 V
FORMULA=C9H10ClN5O2
SMILES=O=N(=O)N=C(N2)N(CC2)Cc(c1)cnc(Cl)c1
CAS=10827-78-9
INCHI=InChI=1S/C9H10ClN5O2/c10-8-2-1-7(5-12-8)6-14-4-3-11-9(14)13-15(16)17/h1-2,5H,3-4,6H2,(H,11,13)
AUTHOR=Nihon Waters K.K.
LICENSE=CC BY-NC
SPLASH=splash10-056r-0790000000-6d669052382baae83c41
SUBMITTER=submitter = Nihon Waters (Nihon Waters K.K.)
SYNON_$=00in-source
COMPUTED_SMILES=O=N(=O)NC1=NCCN1CC2=CN=C(CL)C=C2
COMPUTED_[2M+H-H2O]+=493.09723448000005
COMPUTED_[2M+K]+=549.20290448
COMPUTED_[M+H]+=256.06027224
COMPUTED_[2M+NA]+=533.09437448
COMPUTED_[2M+CL]-=545.55760448
COMPUTED_[2M+HAC-H]-=569.14863448
COMPUTED_[M-H20-H]-=236.03391224
COMPUTED_[M-H]-=254.04502624000003
COMPUTED_[2M-H]-=509.09732848000004
COMPUTED_[M+NA]+=278.04207224000004
COMPUTED_[M+H-H2O]+=238.04493224
COMPUTED_[2M+NH4]+=528.1431844800001
COMPUTED_[M+CL]-=290.50530224
COMPUTED_[M+NH4]+=273.09088224000004
COMPUTED_[M+K]+=294.15060224
COMPUTED_[2M+H]+=511.11257448000003
COMPUTED_[M+HAC-H]-=314.09633224000004
FIND_PEAK=ignore rel.int. < 5
COMPUTED_SPECTRAL_ENTROPY=1.663589057078896
COMPUTED_NORMALIZED_ENTROPY=0.5755623139252456
COMPUTED_MASS_ACCURACY=157.30114834792482
COMPUTED_MASS_ERROR=-0.04027224000003571
MONA_RATING=4.545454545454546
NUM_PEAKS=18
COMPOUND_NAME=Imidacloprid
SPECTRUM_ID=WA000026
ADDUCT=[M+H]+
MS_LEVEL=MS2
PRECURSOR_MZ=256.02
IONMODE=positive
NOMINAL_MASS=255
PARENT_MASS=255.05230224000002
RECORD_DATE=2016.01.19 (Created 2007.08.01, modified 2011.05.06)
126.0 0.01601602
127.0 0.00800801
128.0 0.12512513
150.0 0.01201201
167.0 0.00800801
173.0 0.03103103
174.0 0.02402402
175.0 0.9329329300000001
176.0 0.02402402
208.0 0.043043040000000005
209.0 1.0
210.0 0.07107107
211.0 0.00800801
212.0 0.17217217
213.0 0.01201201
255.0 0.01201201
256.0 0.09409409
257.0 0.00800801
END IONS

BEGIN IONS
CHARGE=1+
INCHIKEY=YWTYJOPNNQFBPC-UHFFFAOYSA-N
INSTRUMENT_TYPE=LC-ESI-QQ
INSTRUMENT=QuattroPremier XE, Waters
COLLISION_ENERGY=10 V
FORMULA=C9H10ClN5O2
SMILES=O=N(=O)N=C(N2)N(CC2)Cc(c1)cnc(Cl)c1
CAS=10827-78-9
INCHI=InChI=1S/C9H10ClN5O2/c10-8-2-1-7(5-12-8)6-14-4-3-11-9(14)13-15(16)17/h1-2,5H,3-4,6H2,(H,11,13)
AUTHOR=Nihon Waters K.K.
LICENSE=CC BY-NC
SPLASH=splash10-0a4i-0090000000-9c8eef44456b70e88a49
SUBMITTER=submitter = Nihon Waters (Nihon Waters K.K.)
SYNON_$=00in-source
COMPUTED_SMILES=O=N(=O)NC1=NCCN1CC2=CN=C(CL)C=C2
COMPUTED_[2M+H-H2O]+=493.09723448000005
COMPUTED_[2M+K]+=549.20290448
COMPUTED_[M+H]+=256.06027224
COMPUTED_[2M+NA]+=533.09437448
COMPUTED_[2M+CL]-=545.55760448
COMPUTED_[2M+HAC-H]-=569.14863448
COMPUTED_[M-H20-H]-=236.03391224
COMPUTED_[M-H]-=254.04502624000003
COMPUTED_[2M-H]-=509.09732848000004
COMPUTED_[M+NA]+=278.04207224000004
COMPUTED_[M+H-H2O]+=238.04493224
COMPUTED_[2M+NH4]+=528.1431844800001
COMPUTED_[M+CL]-=290.50530224
COMPUTED_[M+NH4]+=273.09088224000004
COMPUTED_[M+K]+=294.15060224
COMPUTED_[2M+H]+=511.11257448000003
COMPUTED_[M+HAC-H]-=314.09633224000004
FIND_PEAK=ignore rel.int. < 5
COMPUTED_SPECTRAL_ENTROPY=0.851671262010093
COMPUTED_NORMALIZED_ENTROPY=0.43767244979094044
COMPUTED_MASS_ACCURACY=157.30114834792482
COMPUTED_MASS_ERROR=-0.04027224000003571
MONA_RATING=4.545454545454546
NUM_PEAKS=7
COMPOUND_NAME=Imidacloprid
SPECTRUM_ID=WA000025
ADDUCT=[M+H]+
MS_LEVEL=MS2
PRECURSOR_MZ=256.02
IONMODE=positive
NOMINAL_MASS=255
PARENT_MASS=255.05230224000002
RECORD_DATE=2016.01.19 (Created 2007.08.01, modified 2011.05.06)
175.0 0.043043040000000005
209.0 0.03103103
210.0 0.09009009000000001
212.0 0.043043040000000005
255.0 0.02702703
256.0 1.0
257.0 0.02402402
END IONS

BEGIN IONS
CHARGE=1+
INCHIKEY=NWUWYYSKZYIQAE-ZBFHGGJFSA-N
INSTRUMENT_TYPE=LC-ESI-QQ
INSTRUMENT=QuattroPremier XE, Waters
COLLISION_ENERGY=30 V
FORMULA=C18H28N2O3
SMILES=CC(C)OC(=O)NC(C(C)C)C(=O)NC(C)c(c1)ccc(C)c1
CAS=140923-25-7
INCHI=InChI=1S/C18H28N2O3/c1-11(2)16(20-18(22)23-12(3)4)17(21)19-14(6)15-9-7-13(5)8-10-15/h7-12,14,16H,1-6H3,(H,19,21)(H,20,22)/t14-,16+/m1/s1
AUTHOR=Nihon Waters K.K.
LICENSE=CC BY-NC
SPLASH=splash10-014i-0900000000-79a838f33734a4f7a230
SUBMITTER=submitter = Nihon Waters (Nihon Waters K.K.)
SYNON_$=00in-source
COMPUTED_SMILES=OC(=NC(C(O)=NC(C1=CC=C(C=C1)C)C)C(C)C)OC(C)C
COMPUTED_[2M+H-H2O]+=623.4126155119999
COMPUTED_[2M+K]+=679.5182855119999
COMPUTED_[M+H]+=321.21796275599996
COMPUTED_[2M+NA]+=663.409755512
COMPUTED_[2M+CL]-=675.8729855119999
COMPUTED_[2M+HAC-H]-=699.464015512
COMPUTED_[M-H20-H]-=301.19160275599995
COMPUTED_[M-H]-=319.202716756
COMPUTED_[2M-H]-=639.4127095119999
COMPUTED_[M+NA]+=343.199762756
COMPUTED_[M+H-H2O]+=303.202622756
COMPUTED_[2M+NH4]+=658.458565512
COMPUTED_[M+CL]-=355.662992756
COMPUTED_[M+NH4]+=338.248572756
COMPUTED_[M+K]+=359.30829275599996
COMPUTED_[2M+H]+=641.4279555119999
COMPUTED_[M+HAC-H]-=379.254022756
FIND_PEAK=ignore rel.int. < 5
COMPUTED_SPECTRAL_ENTROPY=0.8057880055141386
COMPUTED_NORMALIZED_ENTROPY=0.4497188486249758
COMPUTED_MASS_ACCURACY=224.21253073565126
COMPUTED_MASS_ERROR=0.0720372440000574
MONA_RATING=4.545454545454546
NUM_PEAKS=6
COMPOUND_NAME=Iprovalicarb
SPECTRUM_ID=WA000024
ADDUCT=[M+H]+
MS_LEVEL=MS2
PRECURSOR_MZ=321.29
IONMODE=positive
NOMINAL_MASS=320
PARENT_MASS=320.20999275599996
RECORD_DATE=2016.01.19 (Created 2007.08.01, modified 2012.10.22)
116.0 0.29029029
118.0 0.01601602
119.0 1.0
120.0 0.02402402
144.0 0.035035039999999996
158.0 0.00800801
END IONS

BEGIN IONS
CHARGE=1+
INCHIKEY=NWUWYYSKZYIQAE-ZBFHGGJFSA-N
INSTRUMENT_TYPE=LC-ESI-QQ
INSTRUMENT=QuattroPremier XE, Waters
COLLISION_ENERGY=20 V
FORMULA=C18H28N2O3
SMILES=CC(C)OC(=O)NC(C(C)C)C(=O)NC(C)c(c1)ccc(C)c1
CAS=140923-25-7
INCHI=InChI=1S/C18H28N2O3/c1-11(2)16(20-18(22)23-12(3)4)17(21)19-14(6)15-9-7-13(5)8-10-15/h7-12,14,16H,1-6H3,(H,19,21)(H,20,22)/t14-,16+/m1/s1
AUTHOR=Nihon Waters K.K.
LICENSE=CC BY-NC
SPLASH=splash10-014i-0900000000-74cd3aeb4298bb90f4f0
SUBMITTER=submitter = Nihon Waters (Nihon Waters K.K.)
SYNON_$=00in-source
COMPUTED_SMILES=OC(=NC(C(O)=NC(C1=CC=C(C=C1)C)C)C(C)C)OC(C)C
COMPUTED_[2M+H-H2O]+=623.4126155119999
COMPUTED_[2M+K]+=679.5182855119999
COMPUTED_[M+H]+=321.21796275599996
COMPUTED_[2M+NA]+=663.409755512
COMPUTED_[2M+CL]-=675.8729855119999
COMPUTED_[2M+HAC-H]-=699.464015512
COMPUTED_[M-H20-H]-=301.19160275599995
COMPUTED_[M-H]-=319.202716756
COMPUTED_[2M-H]-=639.4127095119999
COMPUTED_[M+NA]+=343.199762756
COMPUTED_[M+H-H2O]+=303.202622756
COMPUTED_[2M+NH4]+=658.458565512
COMPUTED_[M+CL]-=355.662992756
COMPUTED_[M+NH4]+=338.248572756
COMPUTED_[M+K]+=359.30829275599996
COMPUTED_[2M+H]+=641.4279555119999
COMPUTED_[M+HAC-H]-=379.254022756
FIND_PEAK=ignore rel.int. < 5
COMPUTED_SPECTRAL_ENTROPY=1.3511385825470577
COMPUTED_NORMALIZED_ENTROPY=0.5634685542251658
COMPUTED_MASS_ACCURACY=224.21253073565126
COMPUTED_MASS_ERROR=0.0720372440000574
MONA_RATING=4.545454545454546
NUM_PEAKS=11
COMPOUND_NAME=Iprovalicarb
SPECTRUM_ID=WA000023
ADDUCT=[M+H]+
MS_LEVEL=MS2
PRECURSOR_MZ=321.29
IONMODE=positive
NOMINAL_MASS=320
PARENT_MASS=320.20999275599996
RECORD_DATE=2016.01.19 (Created 2007.08.01, modified 2012.10.22)
115.0 0.01201201
116.0 0.15715716000000002
117.0 0.00800801
119.0 1.0
120.0 0.02402402
136.0 0.00800801
144.0 0.21521522
158.0 0.03103103
161.0 0.00800801
186.0 0.12912913
203.0 0.05105105
END IONS

BEGIN IONS
CHARGE=1+
INCHIKEY=NWUWYYSKZYIQAE-ZBFHGGJFSA-N
INSTRUMENT_TYPE=LC-ESI-QQ
INSTRUMENT=QuattroPremier XE, Waters
COLLISION_ENERGY=10 V
FORMULA=C18H28N2O3
SMILES=CC(C)OC(=O)NC(C(C)C)C(=O)NC(C)c(c1)ccc(C)c1
CAS=140923-25-7
INCHI=InChI=1S/C18H28N2O3/c1-11(2)16(20-18(22)23-12(3)4)17(21)19-14(6)15-9-7-13(5)8-10-15/h7-12,14,16H,1-6H3,(H,19,21)(H,20,22)/t14-,16+/m1/s1
AUTHOR=Nihon Waters K.K.
LICENSE=CC BY-NC
SPLASH=splash10-0g4i-0789000000-a2c414845fa915199b37
SUBMITTER=submitter = Nihon Waters (Nihon Waters K.K.)
SYNON_$=00in-source
COMPUTED_SMILES=OC(=NC(C(O)=NC(C1=CC=C(C=C1)C)C)C(C)C)OC(C)C
COMPUTED_[2M+H-H2O]+=623.4126155119999
COMPUTED_[2M+K]+=679.5182855119999
COMPUTED_[M+H]+=321.21796275599996
COMPUTED_[2M+NA]+=663.409755512
COMPUTED_[2M+CL]-=675.8729855119999
COMPUTED_[2M+HAC-H]-=699.464015512
COMPUTED_[M-H20-H]-=301.19160275599995
COMPUTED_[M-H]-=319.202716756
COMPUTED_[2M-H]-=639.4127095119999
COMPUTED_[M+NA]+=343.199762756
COMPUTED_[M+H-H2O]+=303.202622756
COMPUTED_[2M+NH4]+=658.458565512
COMPUTED_[M+CL]-=355.662992756
COMPUTED_[M+NH4]+=338.248572756
COMPUTED_[M+K]+=359.30829275599996
COMPUTED_[2M+H]+=641.4279555119999
COMPUTED_[M+HAC-H]-=379.254022756
FIND_PEAK=ignore rel.int. < 5
COMPUTED_SPECTRAL_ENTROPY=1.6337630720418705
COMPUTED_NORMALIZED_ENTROPY=0.6032986653559482
COMPUTED_MASS_ACCURACY=224.21253073565126
COMPUTED_MASS_ERROR=0.0720372440000574
MONA_RATING=4.545454545454546
NUM_PEAKS=15
COMPOUND_NAME=Iprovalicarb
SPECTRUM_ID=WA000022
ADDUCT=[M+H]+
MS_LEVEL=MS2
PRECURSOR_MZ=321.29
IONMODE=positive
NOMINAL_MASS=320
PARENT_MASS=320.20999275599996
RECORD_DATE=2016.01.19 (Created 2007.08.01, modified 2012.10.22)
116.0 0.00800801
118.0 0.02002002
119.0 0.51351351
120.0 0.00800801
135.0 0.00800801
136.0 0.055055059999999996
144.0 0.04704705
185.0 0.00800801
186.0 0.23123123
202.0 0.00800801
203.0 0.98798799
204.0 0.02702703
320.0 0.02402402
321.0 1.0
323.0 0.05105105
END IONS

BEGIN IONS
CHARGE=1+
INCHIKEY=NXQDBZGWYSEGFL-UHFFFAOYSA-N
INSTRUMENT_TYPE=LC-ESI-QQ
INSTRUMENT=QuattroPremier XE, Waters
COLLISION_ENERGY=40 V
FORMULA=C13H19ClNO3PS2
CAS=64249-01-0
SMILES=CC(C)N(C(=O)CSP(=S)(OC)OC)c(c1)ccc(Cl)c1
INCHI=InChI=1S/C13H19ClNO3PS2/c1-10(2)15(12-7-5-11(14)6-8-12)13(16)9-21-19(20,17-3)18-4/h5-8,10H,9H2,1-4H3
AUTHOR=Nihon Waters K.K.
LICENSE=CC BY-NC
SPLASH=splash10-004i-0900000000-a67c9e0ce43cd97b978b
SUBMITTER=submitter = Nihon Waters (Nihon Waters K.K.)
SYNON_$=00in-source
COMPUTED_SMILES=O=C(N(C1=CC=C(CL)C=C1)C(C)C)CSP(=S)(OC)OC
COMPUTED_[2M+H-H2O]+=717.0391295559999
COMPUTED_[2M+K]+=773.144799556
COMPUTED_[M+H]+=368.031219778
COMPUTED_[2M+NA]+=757.036269556
COMPUTED_[2M+CL]-=769.4994995559999
COMPUTED_[2M+HAC-H]-=793.090529556
COMPUTED_[M-H20-H]-=348.00485977799997
COMPUTED_[M-H]-=366.015973778
COMPUTED_[2M-H]-=733.0392235559999
COMPUTED_[M+NA]+=390.013019778
COMPUTED_[M+H-H2O]+=350.015879778
COMPUTED_[2M+NH4]+=752.085079556
COMPUTED_[M+CL]-=402.476249778
COMPUTED_[M+NH4]+=385.061829778
COMPUTED_[M+K]+=406.121549778
COMPUTED_[2M+H]+=735.054469556
COMPUTED_[M+HAC-H]-=426.067279778
FIND_PEAK=ignore rel.int. < 5
COMPUTED_SPECTRAL_ENTROPY=1.473638210193724
COMPUTED_NORMALIZED_ENTROPY=0.5098438310462705
COMPUTED_MASS_ACCURACY=105.36099654960732
COMPUTED_MASS_ERROR=0.038780222000013964
MONA_RATING=4.545454545454546
NUM_PEAKS=18
COMPOUND_NAME=Anilofos
SPECTRUM_ID=WA000010
ADDUCT=[M+H]+
MS_LEVEL=MS2
PRECURSOR_MZ=368.07
IONMODE=positive
NOMINAL_MASS=367
PARENT_MASS=367.023249778
RECORD_DATE=2016.01.19 (Created 2007.08.01, modified 2011.05.06)
61.0 0.01601602
79.0 0.01601602
92.0 0.02002002
110.0 0.00800801
125.0 1.0
126.0 0.00800801
127.0 0.00800801
128.0 0.02702703
138.0 0.035035039999999996
143.0 0.01201201
149.0 0.01201201
157.0 0.12112112
166.0 0.03103103
167.0 0.00800801
171.0 0.29029029
184.0 0.01201201
199.0 0.02402402
208.0 0.01201201
END IONS

BEGIN IONS
CHARGE=1+
INCHIKEY=NXQDBZGWYSEGFL-UHFFFAOYSA-N
INSTRUMENT_TYPE=LC-ESI-QQ
INSTRUMENT=QuattroPremier XE, Waters
COLLISION_ENERGY=30 V
FORMULA=C13H19ClNO3PS2
SMILES=CC(C)N(C(=O)CSP(=S)(OC)OC)c(c1)ccc(Cl)c1
CAS=64249-01-0
INCHI=InChI=1S/C13H19ClNO3PS2/c1-10(2)15(12-7-5-11(14)6-8-12)13(16)9-21-19(20,17-3)18-4/h5-8,10H,9H2,1-4H3
AUTHOR=Nihon Waters K.K.
LICENSE=CC BY-NC
SPLASH=splash10-00fr-0900000000-e0409a7181f1a27e2869
SUBMITTER=submitter = Nihon Waters (Nihon Waters K.K.)
SYNON_$=00in-source
COMPUTED_SMILES=O=C(N(C1=CC=C(CL)C=C1)C(C)C)CSP(=S)(OC)OC
COMPUTED_[2M+H-H2O]+=717.0391295559999
COMPUTED_[2M+K]+=773.144799556
COMPUTED_[M+H]+=368.031219778
COMPUTED_[2M+NA]+=757.036269556
COMPUTED_[2M+CL]-=769.4994995559999
COMPUTED_[2M+HAC-H]-=793.090529556
COMPUTED_[M-H20-H]-=348.00485977799997
COMPUTED_[M-H]-=366.015973778
COMPUTED_[2M-H]-=733.0392235559999
COMPUTED_[M+NA]+=390.013019778
COMPUTED_[M+H-H2O]+=350.015879778
COMPUTED_[2M+NH4]+=752.085079556
COMPUTED_[M+CL]-=402.476249778
COMPUTED_[M+NH4]+=385.061829778
COMPUTED_[M+K]+=406.121549778
COMPUTED_[2M+H]+=735.054469556
COMPUTED_[M+HAC-H]-=426.067279778
FIND_PEAK=ignore rel.int. < 5
COMPUTED_SPECTRAL_ENTROPY=1.5092546201520256
COMPUTED_NORMALIZED_ENTROPY=0.5443485389830209
COMPUTED_MASS_ACCURACY=105.36099654960732
COMPUTED_MASS_ERROR=0.038780222000013964
MONA_RATING=4.545454545454546
NUM_PEAKS=16
COMPOUND_NAME=Anilofos
SPECTRUM_ID=WA000009
ADDUCT=[M+H]+
MS_LEVEL=MS2
PRECURSOR_MZ=368.07
IONMODE=positive
NOMINAL_MASS=367
PARENT_MASS=367.023249778
RECORD_DATE=2016.01.19 (Created 2007.08.01, modified 2011.05.06)
61.0 0.01201201
125.0 0.58058058
128.0 0.01601602
138.0 0.02002002
143.0 0.00800801
157.0 0.1021021
166.0 0.00800801
168.0 0.00800801
171.0 1.0
172.0 0.01201201
184.0 0.03103103
199.0 0.41541542
208.0 0.01601602
226.0 0.00800801
242.0 0.00800801
293.0 0.00800801
END IONS

BEGIN IONS
CHARGE=1+
INCHIKEY=NXQDBZGWYSEGFL-UHFFFAOYSA-N
INSTRUMENT_TYPE=LC-ESI-QQ
INSTRUMENT=QuattroPremier XE, Waters
COLLISION_ENERGY=20 V
FORMULA=C13H19ClNO3PS2
SMILES=CC(C)N(C(=O)CSP(=S)(OC)OC)c(c1)ccc(Cl)c1
CAS=64249-01-0
INCHI=InChI=1S/C13H19ClNO3PS2/c1-10(2)15(12-7-5-11(14)6-8-12)13(16)9-21-19(20,17-3)18-4/h5-8,10H,9H2,1-4H3
AUTHOR=Nihon Waters K.K.
LICENSE=CC BY-NC
SPLASH=splash10-0002-0900000000-06e7d0d927278aa3d780
SUBMITTER=submitter = Nihon Waters (Nihon Waters K.K.)
SYNON_$=00in-source
COMPUTED_SMILES=O=C(N(C1=CC=C(CL)C=C1)C(C)C)CSP(=S)(OC)OC
COMPUTED_[2M+H-H2O]+=717.039129556
COMPUTED_[2M+K]+=773.1447995560001
COMPUTED_[M+H]+=368.03121977800004
COMPUTED_[2M+NA]+=757.0362695560001
COMPUTED_[2M+CL]-=769.499499556
COMPUTED_[2M+HAC-H]-=793.0905295560001
COMPUTED_[M-H20-H]-=348.004859778
COMPUTED_[M-H]-=366.01597377800005
COMPUTED_[2M-H]-=733.039223556
COMPUTED_[M+NA]+=390.01301977800006
COMPUTED_[M+H-H2O]+=350.01587977800006
COMPUTED_[2M+NH4]+=752.0850795560001
COMPUTED_[M+CL]-=402.476249778
COMPUTED_[M+NH4]+=385.06182977800006
COMPUTED_[M+K]+=406.12154977800003
COMPUTED_[2M+H]+=735.0544695560001
COMPUTED_[M+HAC-H]-=426.06727977800006
FIND_PEAK=ignore rel.int. < 5
COMPUTED_SPECTRAL_ENTROPY=1.2711410045757556
COMPUTED_NORMALIZED_ENTROPY=0.5115447715849619
COMPUTED_MASS_ACCURACY=105.36099654945288
COMPUTED_MASS_ERROR=0.03878022199995712
MONA_RATING=4.545454545454546
NUM_PEAKS=12
COMPOUND_NAME=Anilofos
SPECTRUM_ID=WA000008
ADDUCT=[M+H]+
MS_LEVEL=MS2
PRECURSOR_MZ=368.07
IONMODE=positive
NOMINAL_MASS=367
PARENT_MASS=367.02324977800004
RECORD_DATE=2016.01.19 (Created 2007.08.01, modified 2011.05.06)
125.0 0.04704705
157.0 0.00800801
171.0 0.29429429
183.0 0.00800801
198.0 0.04704705
199.0 1.0
200.0 0.01201201
226.0 0.03103103
336.0 0.01601602
367.0 0.01601602
368.0 0.09809810000000001
369.0 0.00800801
END IONS

BEGIN IONS
CHARGE=1+
INCHIKEY=NXQDBZGWYSEGFL-UHFFFAOYSA-N
INSTRUMENT_TYPE=LC-ESI-QQ
INSTRUMENT=QuattroPremier XE, Waters
COLLISION_ENERGY=10 V
FORMULA=C13H19ClNO3PS2
SMILES=CC(C)N(C(=O)CSP(=S)(OC)OC)c(c1)ccc(Cl)c1
CAS=64249-01-0
INCHI=InChI=1S/C13H19ClNO3PS2/c1-10(2)15(12-7-5-11(14)6-8-12)13(16)9-21-19(20,17-3)18-4/h5-8,10H,9H2,1-4H3
AUTHOR=Nihon Waters K.K.
LICENSE=CC BY-NC
SPLASH=splash10-014i-0109000000-92dc40c0f3c9cf8e0787
SUBMITTER=submitter = Nihon Waters (Nihon Waters K.K.)
SYNON_$=00in-source
COMPUTED_SMILES=O=C(N(C1=CC=C(CL)C=C1)C(C)C)CSP(=S)(OC)OC
COMPUTED_[2M+H-H2O]+=717.039129556
COMPUTED_[2M+K]+=773.1447995560001
COMPUTED_[M+H]+=368.03121977800004
COMPUTED_[2M+NA]+=757.0362695560001
COMPUTED_[2M+CL]-=769.499499556
COMPUTED_[2M+HAC-H]-=793.0905295560001
COMPUTED_[M-H20-H]-=348.004859778
COMPUTED_[M-H]-=366.01597377800005
COMPUTED_[2M-H]-=733.039223556
COMPUTED_[M+NA]+=390.01301977800006
COMPUTED_[M+H-H2O]+=350.01587977800006
COMPUTED_[2M+NH4]+=752.0850795560001
COMPUTED_[M+CL]-=402.476249778
COMPUTED_[M+NH4]+=385.06182977800006
COMPUTED_[M+K]+=406.12154977800003
COMPUTED_[2M+H]+=735.0544695560001
COMPUTED_[M+HAC-H]-=426.06727977800006
FIND_PEAK=ignore rel.int. < 5
COMPUTED_SPECTRAL_ENTROPY=0.7500556028645171
COMPUTED_NORMALIZED_ENTROPY=0.466035748921895
COMPUTED_MASS_ACCURACY=105.36099654945288
COMPUTED_MASS_ERROR=0.03878022199995712
MONA_RATING=4.545454545454546
NUM_PEAKS=5
COMPOUND_NAME=Anilofos
SPECTRUM_ID=WA000007
ADDUCT=[M+H]+
MS_LEVEL=MS2
PRECURSOR_MZ=368.07
IONMODE=positive
NOMINAL_MASS=367
PARENT_MASS=367.02324977800004
RECORD_DATE=2016.01.19 (Created 2007.08.01, modified 2011.05.06)
198.0 0.00800801
199.0 0.16516517
367.0 0.07807808
368.0 1.0
369.0 0.03103103
END IONS

BEGIN IONS
CHARGE=1+
INCHIKEY=CJJOSEISRRTUQB-UHFFFAOYSA-N
INSTRUMENT_TYPE=LC-ESI-QQ
INSTRUMENT=QuattroPremier XE, Waters
COLLISION_ENERGY=20 V
FORMULA=C10H12N3O3PS2
SMILES=COP(=S)(OC)SCN(N=1)C(=O)c(c2)c(ccc2)N1
CAS=86-50-0
INCHI=InChI=1S/C10H12N3O3PS2/c1-15-17(18,16-2)19-7-13-10(14)8-5-3-4-6-9(8)11-12-13/h3-6H,7H2,1-2H3
AUTHOR=Nihon Waters K.K.
LICENSE=CC BY-NC
SPLASH=splash10-001i-0900000000-84ac584513bba9686e45
SUBMITTER=submitter = Nihon Waters (Nihon Waters K.K.)
SYNON_$=00in-source
COMPUTED_SMILES=O=C1C=2C=CC=CC2N=NN1CSP(=S)(OC)OC
COMPUTED_[2M+H-H2O]+=617.004169748
COMPUTED_[2M+K]+=673.109839748
COMPUTED_[M+H]+=318.013739874
COMPUTED_[2M+NA]+=657.001309748
COMPUTED_[2M+CL]-=669.464539748
COMPUTED_[2M+HAC-H]-=693.055569748
COMPUTED_[M-H20-H]-=297.987379874
COMPUTED_[M-H]-=315.998493874
COMPUTED_[2M-H]-=633.004263748
COMPUTED_[M+NA]+=339.99553987400003
COMPUTED_[M+H-H2O]+=299.99839987400003
COMPUTED_[2M+NH4]+=652.050119748
COMPUTED_[M+CL]-=352.45876987400004
COMPUTED_[M+NH4]+=335.04434987400003
COMPUTED_[M+K]+=356.104069874
COMPUTED_[2M+H]+=635.019509748
COMPUTED_[M+HAC-H]-=376.04979987400003
FIND_PEAK=ignore rel.int. < 5
COMPUTED_SPECTRAL_ENTROPY=1.7217681610767248
COMPUTED_NORMALIZED_ENTROPY=0.5847525363097017
COMPUTED_MASS_ACCURACY=114.00762773149488
COMPUTED_MASS_ERROR=0.036260126000001947
MONA_RATING=4.545454545454546
NUM_PEAKS=19
COMPOUND_NAME=Methylazinphos
SPECTRUM_ID=WA000006
ADDUCT=[M+H]+
MS_LEVEL=MS2
PRECURSOR_MZ=318.05
IONMODE=positive
NOMINAL_MASS=317
PARENT_MASS=317.005769874
RECORD_DATE=2016.01.19 (Created 2007.08.01, modified 2011.05.06)
77.0 0.02702703
93.0 0.00800801
103.0 0.01601602
104.0 0.08208208
105.0 0.02002002
124.0 0.02002002
125.0 0.43943944
131.0 0.02002002
132.0 1.0
133.0 0.02402402
159.0 0.00800801
160.0 0.17617618000000002
161.0 0.00800801
166.0 0.01201201
167.0 0.07407407
171.0 0.035035039999999996
183.0 0.02402402
261.0 0.02402402
262.0 0.00800801
END IONS

BEGIN IONS
CHARGE=1+
INCHIKEY=CJJOSEISRRTUQB-UHFFFAOYSA-N
INSTRUMENT_TYPE=LC-ESI-QQ
INSTRUMENT=QuattroPremier XE, Waters
COLLISION_ENERGY=10 V
FORMULA=C10H12N3O3PS2
SMILES=COP(=S)(OC)SCN(N=1)C(=O)c(c2)c(ccc2)N1
CAS=86-50-0
INCHI=InChI=1S/C10H12N3O3PS2/c1-15-17(18,16-2)19-7-13-10(14)8-5-3-4-6-9(8)11-12-13/h3-6H,7H2,1-2H3
AUTHOR=Nihon Waters K.K.
LICENSE=CC BY-NC
SPLASH=splash10-03di-0920000000-e8be7b1a3b12414ccb9f
SUBMITTER=submitter = Nihon Waters (Nihon Waters K.K.)
SYNON_$=00in-source
COMPUTED_SMILES=O=C1C=2C=CC=CC2N=NN1CSP(=S)(OC)OC
COMPUTED_[2M+H-H2O]+=617.004169748
COMPUTED_[2M+K]+=673.109839748
COMPUTED_[M+H]+=318.013739874
COMPUTED_[2M+NA]+=657.001309748
COMPUTED_[2M+CL]-=669.464539748
COMPUTED_[2M+HAC-H]-=693.055569748
COMPUTED_[M-H20-H]-=297.987379874
COMPUTED_[M-H]-=315.998493874
COMPUTED_[2M-H]-=633.004263748
COMPUTED_[M+NA]+=339.99553987400003
COMPUTED_[M+H-H2O]+=299.99839987400003
COMPUTED_[2M+NH4]+=652.050119748
COMPUTED_[M+CL]-=352.45876987400004
COMPUTED_[M+NH4]+=335.04434987400003
COMPUTED_[M+K]+=356.104069874
COMPUTED_[2M+H]+=635.019509748
COMPUTED_[M+HAC-H]-=376.04979987400003
FIND_PEAK=ignore rel.int. < 5
COMPUTED_SPECTRAL_ENTROPY=1.7936861168130716
COMPUTED_NORMALIZED_ENTROPY=0.6205728076026644
COMPUTED_MASS_ACCURACY=114.00762773149488
COMPUTED_MASS_ERROR=0.036260126000001947
MONA_RATING=4.545454545454546
NUM_PEAKS=18
COMPOUND_NAME=Methylazinphos
SPECTRUM_ID=WA000005
ADDUCT=[M+H]+
MS_LEVEL=MS2
PRECURSOR_MZ=318.05
IONMODE=positive
NOMINAL_MASS=317
PARENT_MASS=317.005769874
RECORD_DATE=2016.01.19 (Created 2007.08.01, modified 2011.05.06)
124.0 0.00800801
125.0 0.08208208
131.0 0.03903904
132.0 0.15715716000000002
148.0 0.01201201
154.0 0.00800801
159.0 0.02702703
160.0 1.0
161.0 0.02702703
167.0 0.00800801
170.0 0.02402402
171.0 0.16516517
183.0 0.00800801
261.0 0.41141141
262.0 0.01201201
317.0 0.01201201
318.0 0.11411410999999999
319.0 0.02002002
END IONS

BEGIN IONS
CHARGE=1+
INCHIKEY=VNKBTWQZTQIWDV-UHFFFAOYSA-N
INSTRUMENT_TYPE=LC-ESI-QQ
INSTRUMENT=QuattroPremier XE, Waters
COLLISION_ENERGY=40 V
FORMULA=C9H10ClN2O5PS
SMILES=COP(=O)(OC)SCN(C(=O)1)c(n2)c(cc(Cl)c2)O1
CAS=35575-96-3
INCHI=InChI=1S/C9H10ClN2O5PS/c1-15-18(14,16-2)19-5-12-8-7(17-9(12)13)3-6(10)4-11-8/h3-4H,5H2,1-2H3
AUTHOR=Nihon Waters K.K.
LICENSE=CC BY-NC
SPLASH=splash10-01p9-0900000000-5de82ddcb9e50a9bedc3
SUBMITTER=submitter = Nihon Waters (Nihon Waters K.K.)
SYNON_$=00in-source
COMPUTED_SMILES=O=C1OC2=CC(CL)=CN=C2N1CSP(=O)(OC)OC
COMPUTED_[2M+H-H2O]+=630.9399434599999
COMPUTED_[2M+K]+=687.0456134599999
COMPUTED_[M+H]+=324.98162672999996
COMPUTED_[2M+NA]+=670.9370834599999
COMPUTED_[2M+CL]-=683.4003134599999
COMPUTED_[2M+HAC-H]-=706.9913434599999
COMPUTED_[M-H20-H]-=304.95526672999995
COMPUTED_[M-H]-=322.96638072999997
COMPUTED_[2M-H]-=646.9400374599999
COMPUTED_[M+NA]+=346.96342673
COMPUTED_[M+H-H2O]+=306.96628673
COMPUTED_[2M+NH4]+=665.9858934599999
COMPUTED_[M+CL]-=359.42665673
COMPUTED_[M+NH4]+=342.01223673
COMPUTED_[M+K]+=363.07195672999995
COMPUTED_[2M+H]+=648.9552834599999
COMPUTED_[M+HAC-H]-=383.01768673
FIND_PEAK=ignore rel.int. < 5
COMPUTED_SPECTRAL_ENTROPY=1.3160271246193487
COMPUTED_NORMALIZED_ENTROPY=0.5488259389591816
COMPUTED_MASS_ACCURACY=148.82709288377455
COMPUTED_MASS_ERROR=0.048373270000013235
MONA_RATING=4.545454545454546
NUM_PEAKS=11
COMPOUND_NAME=Azamethiphos
SPECTRUM_ID=WA000004
ADDUCT=[M+H]+
MS_LEVEL=MS2
PRECURSOR_MZ=325.03
IONMODE=positive
NOMINAL_MASS=324
PARENT_MASS=323.97365672999996
RECORD_DATE=2016.01.19 (Created 2007.08.01, modified 2011.05.06)
76.0 0.05105105
102.0 0.00800801
108.0 0.00800801
111.0 0.06706706999999999
112.0 0.88188188
113.0 0.00800801
125.0 0.00800801
138.0 0.03103103
139.0 1.0
140.0 0.02002002
183.0 0.21221221
END IONS

BEGIN IONS
CHARGE=1+
INCHIKEY=VNKBTWQZTQIWDV-UHFFFAOYSA-N
INSTRUMENT_TYPE=LC-ESI-QQ
INSTRUMENT=QuattroPremier XE, Waters
COLLISION_ENERGY=30 V
FORMULA=C9H10ClN2O5PS
SMILES=COP(=O)(OC)SCN(C(=O)1)c(n2)c(cc(Cl)c2)O1
CAS=35575-96-3
INCHI=InChI=1S/C9H10ClN2O5PS/c1-15-18(14,16-2)19-5-12-8-7(17-9(12)13)3-6(10)4-11-8/h3-4H,5H2,1-2H3
AUTHOR=Nihon Waters K.K.
LICENSE=CC BY-NC
SPLASH=splash10-001r-0900000000-85828b8e7936558317d4
SUBMITTER=submitter = Nihon Waters (Nihon Waters K.K.)
SYNON_$=00in-source
COMPUTED_SMILES=O=C1OC2=CC(CL)=CN=C2N1CSP(=O)(OC)OC
COMPUTED_[2M+H-H2O]+=630.93994346
COMPUTED_[2M+K]+=687.04561346
COMPUTED_[M+H]+=324.98162673
COMPUTED_[2M+NA]+=670.93708346
COMPUTED_[2M+CL]-=683.40031346
COMPUTED_[2M+HAC-H]-=706.99134346
COMPUTED_[M-H20-H]-=304.95526673
COMPUTED_[M-H]-=322.96638073
COMPUTED_[2M-H]-=646.94003746
COMPUTED_[M+NA]+=346.96342673000004
COMPUTED_[M+H-H2O]+=306.96628673000004
COMPUTED_[2M+NH4]+=665.98589346
COMPUTED_[M+CL]-=359.42665673
COMPUTED_[M+NH4]+=342.01223673000004
COMPUTED_[M+K]+=363.07195673
COMPUTED_[2M+H]+=648.95528346
COMPUTED_[M+HAC-H]-=383.01768673000004
FIND_PEAK=ignore rel.int. < 5
COMPUTED_SPECTRAL_ENTROPY=1.0874413789055029
COMPUTED_NORMALIZED_ENTROPY=0.5588343220438139
COMPUTED_MASS_ACCURACY=148.82709288359965
COMPUTED_MASS_ERROR=0.04837326999995639
MONA_RATING=4.545454545454546
NUM_PEAKS=7
COMPOUND_NAME=Azamethiphos
SPECTRUM_ID=WA000003
ADDUCT=[M+H]+
MS_LEVEL=MS2
PRECURSOR_MZ=325.03
IONMODE=positive
NOMINAL_MASS=324
PARENT_MASS=323.97365673
RECORD_DATE=2016.01.19 (Created 2007.08.01, modified 2011.05.06)
111.0 0.17617618000000002
124.0 0.01601602
138.0 0.01201201
139.0 0.74074074
140.0 0.01201201
183.0 1.0
184.0 0.02702703
END IONS

BEGIN IONS
CHARGE=1+
INCHIKEY=VNKBTWQZTQIWDV-UHFFFAOYSA-N
INSTRUMENT_TYPE=LC-ESI-QQ
INSTRUMENT=QuattroPremier XE, Waters
COLLISION_ENERGY=20 V
FORMULA=C9H10ClN2O5PS
SMILES=COP(=O)(OC)SCN(C(=O)1)c(n2)c(cc(Cl)c2)O1
CAS=35575-96-3
INCHI=InChI=1S/C9H10ClN2O5PS/c1-15-18(14,16-2)19-5-12-8-7(17-9(12)13)3-6(10)4-11-8/h3-4H,5H2,1-2H3
AUTHOR=Nihon Waters K.K.
LICENSE=CC BY-NC
SPLASH=splash10-001i-0900000000-d7299294acd72c52b5c7
SUBMITTER=submitter = Nihon Waters (Nihon Waters K.K.)
SYNON_$=00in-source
COMPUTED_SMILES=O=C1OC2=CC(CL)=CN=C2N1CSP(=O)(OC)OC
COMPUTED_[2M+H-H2O]+=630.93994346
COMPUTED_[2M+K]+=687.04561346
COMPUTED_[M+H]+=324.98162673
COMPUTED_[2M+NA]+=670.93708346
COMPUTED_[2M+CL]-=683.40031346
COMPUTED_[2M+HAC-H]-=706.99134346
COMPUTED_[M-H20-H]-=304.95526673
COMPUTED_[M-H]-=322.96638073
COMPUTED_[2M-H]-=646.94003746
COMPUTED_[M+NA]+=346.96342673000004
COMPUTED_[M+H-H2O]+=306.96628673000004
COMPUTED_[2M+NH4]+=665.98589346
COMPUTED_[M+CL]-=359.42665673
COMPUTED_[M+NH4]+=342.01223673000004
COMPUTED_[M+K]+=363.07195673
COMPUTED_[2M+H]+=648.95528346
COMPUTED_[M+HAC-H]-=383.01768673000004
FIND_PEAK=ignore rel.int. < 5
COMPUTED_SPECTRAL_ENTROPY=0.5867205335691429
COMPUTED_NORMALIZED_ENTROPY=0.36454996432996395
COMPUTED_MASS_ACCURACY=148.82709288359965
COMPUTED_MASS_ERROR=0.04837326999995639
MONA_RATING=4.545454545454546
NUM_PEAKS=5
COMPOUND_NAME=Azamethiphos
SPECTRUM_ID=WA000002
ADDUCT=[M+H]+
MS_LEVEL=MS2
PRECURSOR_MZ=325.03
IONMODE=positive
NOMINAL_MASS=324
PARENT_MASS=323.97365673
RECORD_DATE=2016.01.19 (Created 2007.08.01, modified 2011.05.06)
139.0 0.055055059999999996
155.0 0.01601602
183.0 1.0
184.0 0.02002002
325.0 0.07807808
END IONS

BEGIN IONS
CHARGE=1+
INCHIKEY=VNKBTWQZTQIWDV-UHFFFAOYSA-N
INSTRUMENT_TYPE=LC-ESI-QQ
INSTRUMENT=QuattroPremier XE, Waters
COLLISION_ENERGY=10 V
FORMULA=C9H10ClN2O5PS
CAS=35575-96-3
SMILES=COP(=O)(OC)SCN(C(=O)1)c(n2)c(cc(Cl)c2)O1
INCHI=InChI=1S/C9H10ClN2O5PS/c1-15-18(14,16-2)19-5-12-8-7(17-9(12)13)3-6(10)4-11-8/h3-4H,5H2,1-2H3
AUTHOR=Nihon Waters K.K.
LICENSE=CC BY-NC
SPLASH=splash10-004i-0009000000-d6f0632c06b15ba41e9b
SUBMITTER=submitter = Nihon Waters (Nihon Waters K.K.)
SYNON_$=00in-source
COMPUTED_SMILES=O=C1OC2=CC(CL)=CN=C2N1CSP(=O)(OC)OC
COMPUTED_[2M+H-H2O]+=630.93994346
COMPUTED_[2M+K]+=687.04561346
COMPUTED_[M+H]+=324.98162673
COMPUTED_[2M+NA]+=670.93708346
COMPUTED_[2M+CL]-=683.40031346
COMPUTED_[2M+HAC-H]-=706.99134346
COMPUTED_[M-H20-H]-=304.95526673
COMPUTED_[M-H]-=322.96638073
COMPUTED_[2M-H]-=646.94003746
COMPUTED_[M+NA]+=346.96342673000004
COMPUTED_[M+H-H2O]+=306.96628673000004
COMPUTED_[2M+NH4]+=665.98589346
COMPUTED_[M+CL]-=359.42665673
COMPUTED_[M+NH4]+=342.01223673000004
COMPUTED_[M+K]+=363.07195673
COMPUTED_[2M+H]+=648.95528346
COMPUTED_[M+HAC-H]-=383.01768673000004
FIND_PEAK=ignore rel.int. < 5
COMPUTED_SPECTRAL_ENTROPY=0.5169023883557644
COMPUTED_NORMALIZED_ENTROPY=0.3728662561522612
COMPUTED_MASS_ACCURACY=148.82709288359965
COMPUTED_MASS_ERROR=0.04837326999995639
MONA_RATING=4.545454545454546
NUM_PEAKS=4
COMPOUND_NAME=Azamethiphos
SPECTRUM_ID=WA000001
ADDUCT=[M+H]+
MS_LEVEL=MS2
PRECURSOR_MZ=325.03
IONMODE=positive
NOMINAL_MASS=324
PARENT_MASS=323.97365673
RECORD_DATE=2016.01.19 (Created 2007.08.01, modified 2011.05.06)
183.0 0.09009009000000001
324.0 0.03103103
325.0 1.0
326.0 0.03103103
END IONS

BEGIN IONS
CHARGE=1+
INCHIKEY=FWKQNCXZGNBPFD-UHFFFAOYSA-N
INSTRUMENT_TYPE=ESI-QFT
INSTRUMENT=Thermo Q Exactive HF
COLLISION_ENERGY=65HCD
FORMULA=C15H18
INCHI=InChI=1S/C15H18/c1-10(2)13-7-5-11(3)14-8-6-12(4)15(14)9-13/h5-10H,1-4H3
AUTHOR=Arpana Vaniya
SPLASH=splash10-0a4i-4900000000-ded76fab57f91e4662af
SUBMITTER=submitter = Arpana Vaniya (University of California, Davis)
SYNON_$=00in-source
COMPUTED_SMILES=C=1C=C(C2=CC=C(C2=CC1C(C)C)C)C
COMPUTED_[2M+H-H2O]+=379.274331152
COMPUTED_[2M+K]+=435.380001152
COMPUTED_[M+H]+=199.148820576
COMPUTED_[2M+NA]+=419.271471152
COMPUTED_[2M+CL]-=431.73470115199996
COMPUTED_[2M+HAC-H]-=455.325731152
COMPUTED_[M-H20-H]-=179.12246057599998
COMPUTED_[M-H]-=197.133574576
COMPUTED_[2M-H]-=395.274425152
COMPUTED_[M+NA]+=221.13062057599998
COMPUTED_[M+H-H2O]+=181.13348057599998
COMPUTED_[2M+NH4]+=414.320281152
COMPUTED_[M+CL]-=233.593850576
COMPUTED_[M+NH4]+=216.179430576
COMPUTED_[M+K]+=237.239150576
COMPUTED_[2M+H]+=397.289671152
COMPUTED_[M+HAC-H]-=257.184880576
RAW_FILENAME=NP_UC_2800_p10_H11_8.raw
AVERAGED_SCANS=16
SOURCE_INTRODUCTION=direct injection
COMPUTED_SPECTRAL_ENTROPY=4.062018066777204
COMPUTED_NORMALIZED_ENTROPY=0.7155529741582467
COMPUTED_MASS_ACCURACY=22.034115559346137
COMPUTED_MASS_ERROR=-0.004763217601578162
MONA_RATING=4.545454545454546
NUM_PEAKS=430
COMPOUND_NAME=GUAIAZULENE
SPECTRUM_ID=VF-NPL-QEHF028260
ADDUCT=[M+NH4]+
MS_LEVEL=MS2
PRECURSOR_MZ=216.1746673583984
IONMODE=positive
NOMINAL_MASS=198
PARENT_MASS=198.140850576
SMILES=Cc1ccc(C(C)C)cc2c(C)ccc1-2
55.054496 0.048033099999999995
56.049737 0.01040932
56.965056 0.08253803
57.070133 0.08411642000000001
57.935029 0.29136171
58.9329 0.019223129999999998
59.930463 0.79547331
60.044609 0.02903003
60.93071 0.021536390000000002
61.010838 0.08607434
61.927968 0.072843
63.997861 0.00456946
67.054345 0.00637498
70.065149 0.011229119999999999
71.085546 0.02246172
72.958253 0.01980704
73.956121 0.02320066
74.953705 0.08018020999999999
75.925121 0.023914209999999998
75.945367 0.059386970000000004
77.940785 0.13705418
78.949671 0.02593241
79.021173 0.17108804
79.054187 0.00591445
79.948789 0.01515404
81.069832 0.008245240000000001
84.080805 0.08648589
85.039587 0.03731699
86.096307 0.02413874
91.054212 0.047055049999999994
92.964303 0.01209217
93.95584 0.02834923
95.951244 0.09306198
98.97537 0.09312813
102.914621 0.01266343
104.910074 0.039454090000000004
105.069864 0.08991122000000001
106.925632 0.0065891
114.970856 0.07922177999999999
115.054175 0.0184751
115.969895 0.05039416
116.985786 0.05549449
117.069791 0.05648162
119.085497 0.015641910000000002
122.920857 0.01287235
122.930922 0.00517188
122.940895 0.04560048
123.928491 0.00671333
123.938808 0.01354962
124.936361 0.09758426
125.94408 0.02195735
128.061973 0.05329525
128.986338 0.09435928
129.06512 0.018341529999999998
129.06972 0.08784428
129.98553 0.06805291000000001
130.077725 0.05236242
131.085455 0.04263768
134.978672 0.00606622
134.99645 0.019772460000000002
137.927988 0.07809238
137.944249 0.01521808
138.935812 0.03412025
139.923412 0.37392555
139.95441 0.01486957
140.931225 0.18959995
141.069739 0.01100036
141.920702 0.03244446
142.077775 0.01281239
142.928305 0.00957326
143.002046 0.042699230000000005
143.085536 0.06116196
144.001168 0.02210078
144.088458 0.00694631
145.064668 0.0052844
145.101125 0.22191295
146.104355 0.021020120000000003
148.971866 0.008108830000000001
152.951538 0.01838287
153.069772 0.044787270000000004
153.95926 0.20868079
154.077938 0.00625737
154.947018 0.05273208
154.956743 0.00524595
154.962902 0.026935880000000002
154.977836 0.02006074
155.085462 0.21362172000000001
155.931101 0.005381019999999999
155.934405 0.00489346
155.954677 1.0
155.971777 0.006021309999999999
156.088541 0.032116950000000005
156.946334 0.03557083
156.954908 0.023931369999999997
156.974771 0.0056886
157.017826 0.03238634
157.064748 0.06899448
157.10106 0.00561604
157.952119 0.10782843
157.964943 0.012503789999999999
158.016887 0.015549710000000001
158.072611 0.38503152
158.941733 0.19382270999999998
159.075356 0.022838980000000002
160.939061 0.01331632
168.937077 0.029277
171.080355 0.03448282
171.912979 0.009921039999999999
172.088403 0.1072756
172.951245 0.00702014
172.98843 0.02695424
173.096345 0.08222317
174.985286 0.006945440000000001
175.07538 0.00550563
185.095923 0.07165972
185.948912 0.02785559
186.94664 0.010150490000000002
187.074889 0.0076583599999999995
187.944434 0.19786068
189.941541 0.01436504
199.111614 0.05910057
200.115666 0.02853999
201.091209 0.0169421
202.098796 0.02640115
214.252664 0.00566387
217.104443 0.013715699999999999
217.122153 0.01240855
219.929618 0.01504547
END IONS

BEGIN IONS
CHARGE=1+
INCHIKEY=FWKQNCXZGNBPFD-UHFFFAOYSA-N
INSTRUMENT_TYPE=ESI-QFT
INSTRUMENT=Thermo Q Exactive HF
COLLISION_ENERGY=45HCD
FORMULA=C15H18
INCHI=InChI=1S/C15H18/c1-10(2)13-7-5-11(3)14-8-6-12(4)15(14)9-13/h5-10H,1-4H3
AUTHOR=Arpana Vaniya
SPLASH=splash10-0aor-1930000000-bc69ecd6aceddda32f4a
SUBMITTER=submitter = Arpana Vaniya (University of California, Davis)
SYNON_$=00in-source
COMPUTED_SMILES=C=1C=C(C2=CC=C(C2=CC1C(C)C)C)C
COMPUTED_[2M+H-H2O]+=379.274331152
COMPUTED_[2M+K]+=435.380001152
COMPUTED_[M+H]+=199.148820576
COMPUTED_[2M+NA]+=419.271471152
COMPUTED_[2M+CL]-=431.73470115199996
COMPUTED_[2M+HAC-H]-=455.325731152
COMPUTED_[M-H20-H]-=179.12246057599998
COMPUTED_[M-H]-=197.133574576
COMPUTED_[2M-H]-=395.274425152
COMPUTED_[M+NA]+=221.13062057599998
COMPUTED_[M+H-H2O]+=181.13348057599998
COMPUTED_[2M+NH4]+=414.320281152
COMPUTED_[M+CL]-=233.593850576
COMPUTED_[M+NH4]+=216.179430576
COMPUTED_[M+K]+=237.239150576
COMPUTED_[2M+H]+=397.289671152
COMPUTED_[M+HAC-H]-=257.184880576
RAW_FILENAME=NP_UC_2800_p10_H11_8.raw
AVERAGED_SCANS=16
SOURCE_INTRODUCTION=direct injection
COMPUTED_SPECTRAL_ENTROPY=3.6406403033286003
COMPUTED_NORMALIZED_ENTROPY=0.6440773590575132
COMPUTED_MASS_ACCURACY=22.034115559346137
COMPUTED_MASS_ERROR=-0.004763217601578162
MONA_RATING=4.545454545454546
NUM_PEAKS=389
COMPOUND_NAME=GUAIAZULENE
SPECTRUM_ID=VF-NPL-QEHF028259
ADDUCT=[M+NH4]+
MS_LEVEL=MS2
PRECURSOR_MZ=216.1746673583984
IONMODE=positive
NOMINAL_MASS=198
PARENT_MASS=198.140850576
SMILES=Cc1ccc(C(C)C)cc2c(C)ccc1-2
55.0545 0.006029860000000001
56.965056 0.01255468
57.070113 0.0390908
57.935041 0.02626086
59.930453 0.07182382
60.044551 0.020666000000000004
61.010818 0.04410462
61.927961 0.00324078
69.069955 0.00313282
71.085515 0.03371628
74.059913 0.0042657699999999995
74.953743 0.0032091
75.92513 0.00421695
75.945354 0.010227809999999999
77.940784 0.04133696
79.021201 0.07767225
81.017001 0.0024021
81.06975 0.00240214
84.080773 0.029848080000000003
85.039572 0.02477652
86.096325 0.014962969999999999
87.055228 0.0029257499999999995
93.955801 0.0030966900000000005
95.085481 0.00246339
95.951239 0.01790956
98.975341 0.04764436
99.08032 0.00290504
104.91016 0.00377209
105.069881 0.006830770000000001
106.925684 0.00408562
114.127713 0.00978123
114.970824 0.00871735
115.969929 0.00456488
116.985856 0.030090340000000004
117.069862 0.0034560999999999997
119.085481 0.0025293900000000003
122.940862 0.018440559999999998
123.938686 0.0043745
124.936327 0.044068630000000004
125.944025 0.00437383
128.986405 0.022915610000000003
129.069926 0.00474293
129.985579 0.015097000000000001
131.085457 0.01782497
134.978653 0.00874329
134.99642 0.011709810000000001
137.927867 0.026618759999999998
137.944266 0.01877064
137.954396 0.00799085
139.923396 0.12675691
139.959771 0.01915723
140.931224 0.02707699
141.920829 0.00668818
142.122558 0.0132475
143.002098 0.02781945
143.085465 0.01196802
144.001221 0.01163013
144.080664 0.00274214
144.088765 0.01197212
145.101104 0.20012976
146.104361 0.02260142
147.080389 0.0032152599999999997
151.969907 0.01084441
152.951407 0.04783738
152.967626 0.015381450000000001
152.989189 0.00386947
153.959194 0.1992053
154.946932 0.11484546
154.956776 0.00717234
154.962929 0.03355819
154.97773 0.02717657
155.085352 0.11908429
155.954621 1.0
156.08847 0.01183087
156.94493 0.00516839
156.954861 0.03279896
156.974801 0.00775992
157.017713 0.09504847
157.064778 0.0026260800000000003
157.952018 0.10338976999999999
158.016763 0.06161627
158.072542 0.10955812
158.941739 0.024114559999999997
159.075346 0.0049628
168.936652 0.0041991699999999995
170.961923 0.007385399999999999
170.978269 0.04516553
171.080223 0.01023366
171.116648 0.00258769
172.088434 0.052658659999999996
172.95777 0.026960090000000003
172.988382 0.024658959999999997
173.096055 0.34508517
173.132465 0.0046096
174.099143 0.04312738000000001
174.985462 0.00855237
175.075367 0.005663820000000001
176.989253 0.00340129
182.924061 0.00329361
183.091646 0.00471417
184.939802 0.0032707500000000002
185.095948 0.00524114
185.948952 0.03231008
186.947024 0.011746989999999999
187.9445 0.18368166
188.945673 0.00235242
189.127366 0.01055829
189.941677 0.01637332
192.961602 0.010745320000000001
194.999877 0.00493854
199.111685 0.06477585000000001
200.114971 0.03804991
200.934585 0.040153140000000004
202.098905 0.01629347
210.972181 0.00348763
214.13144 0.024205269999999997
214.252842 0.15623678
215.106771 0.01956071
215.124996 0.02999651
215.143333 0.09443483999999999
215.256319 0.055271970000000004
216.146411 0.00841742
217.104629 0.81236263
217.121761 0.0893839
217.52975 0.013681110000000002
218.107814 0.04080541
218.117362 0.01963523
218.945239 0.04036888
END IONS

BEGIN IONS
CHARGE=1+
INCHIKEY=FWKQNCXZGNBPFD-UHFFFAOYSA-N
INSTRUMENT_TYPE=ESI-QFT
INSTRUMENT=Thermo Q Exactive HF
COLLISION_ENERGY=35HCD
FORMULA=C15H18
INCHI=InChI=1S/C15H18/c1-10(2)13-7-5-11(3)14-8-6-12(4)15(14)9-13/h5-10H,1-4H3
AUTHOR=Arpana Vaniya
SPLASH=splash10-014i-0790000000-1090ee637c493057a906
SUBMITTER=submitter = Arpana Vaniya (University of California, Davis)
SYNON_$=00in-source
COMPUTED_SMILES=C=1C=C(C2=CC=C(C2=CC1C(C)C)C)C
COMPUTED_[2M+H-H2O]+=379.274331152
COMPUTED_[2M+K]+=435.380001152
COMPUTED_[M+H]+=199.148820576
COMPUTED_[2M+NA]+=419.271471152
COMPUTED_[2M+CL]-=431.73470115199996
COMPUTED_[2M+HAC-H]-=455.325731152
COMPUTED_[M-H20-H]-=179.12246057599998
COMPUTED_[M-H]-=197.133574576
COMPUTED_[2M-H]-=395.274425152
COMPUTED_[M+NA]+=221.13062057599998
COMPUTED_[M+H-H2O]+=181.13348057599998
COMPUTED_[2M+NH4]+=414.320281152
COMPUTED_[M+CL]-=233.593850576
COMPUTED_[M+NH4]+=216.179430576
COMPUTED_[M+K]+=237.239150576
COMPUTED_[2M+H]+=397.289671152
COMPUTED_[M+HAC-H]-=257.184880576
AVERAGED_SCANS=16
RAW_FILENAME=NP_UC_2800_p10_H11_8.raw
SOURCE_INTRODUCTION=direct injection
COMPUTED_SPECTRAL_ENTROPY=3.1028731610343434
COMPUTED_NORMALIZED_ENTROPY=0.5367602199539989
COMPUTED_MASS_ACCURACY=22.034115559346137
COMPUTED_MASS_ERROR=-0.004763217601578162
MONA_RATING=4.545454545454546
NUM_PEAKS=470
COMPOUND_NAME=GUAIAZULENE
SPECTRUM_ID=VF-NPL-QEHF028258
ADDUCT=[M+NH4]+
MS_LEVEL=MS2
PRECURSOR_MZ=216.1746673583984
IONMODE=positive
NOMINAL_MASS=198
PARENT_MASS=198.140850576
SMILES=Cc1ccc(C(C)C)cc2c(C)ccc1-2
56.96507 0.00150426
57.070156 0.00467444
59.930484 0.00387677
60.044613 0.005996390000000001
61.010838 0.01343455
61.03985 0.00151249
62.981925 0.0018529899999999999
71.085563 0.008064400000000001
74.060024 0.00197845
75.94542 0.0013276499999999999
77.940885 0.00484876
79.021204 0.020356830000000003
84.08078 0.00497462
85.039641 0.00909814
86.0964 0.00328295
87.055272 0.0061619199999999996
95.085465 0.00158942
95.951333 0.00164386
98.97534 0.01151944
99.080417 0.00441497
100.0757 0.00135471
114.127758 0.00402195
116.985854 0.00804798
122.940858 0.0035829699999999996
124.936329 0.00891436
128.106907 0.00343663
128.98631 0.00354904
129.985574 0.00199426
131.085474 0.00323347
134.978624 0.00331197
134.996433 0.0035072700000000003
137.927931 0.00227941
137.944155 0.00818821
137.954406 0.0032057
137.964377 0.0012367
139.923381 0.01575998
139.959797 0.007119520000000001
140.931298 0.00260605
142.122653 0.00913773
143.002067 0.010744199999999999
143.08548 0.00266526
144.00122 0.00697608
144.080905 0.00242884
144.088754 0.0019986599999999998
145.101121 0.04362317
146.104516 0.00540083
150.972298 0.00202624
151.96994 0.00919302
152.951505 0.0150563
152.967611 0.01612197
152.989175 0.00215072
153.95919 0.061819110000000004
154.946946 0.0369808
154.95698 0.00171817
154.963134 0.01177678
154.977669 0.00936161
155.085363 0.020697399999999998
155.954613 0.32429069
156.088548 0.0023553099999999998
156.944272 0.0030271900000000003
156.954508 0.010742100000000001
156.974848 0.0040100000000000005
157.017665 0.04431409
157.122177 0.00351426
157.952024 0.03462523
158.016799 0.02921791
158.072517 0.01318533
158.941719 0.0018970999999999999
168.982768 0.006559239999999999
169.970239 0.00262616
169.980108 0.00122365
170.117302 0.00158722
170.951983 0.0025082100000000003
170.961833 0.00438772
170.97813 0.04141472
171.080408 0.00415845
171.116903 0.00171095
172.088587 0.01053923
172.958033 0.01089679
172.97539 0.00420251
172.988264 0.01066728
173.096032 0.20052340000000002
173.132395 0.00224634
174.099272 0.0282258
174.985224 0.00445654
175.075212 0.0019661799999999997
176.989191 0.00379921
182.924242 0.00386695
182.944112 0.01044593
183.091594 0.0041781299999999995
184.939692 0.013036430000000002
185.948961 0.01285415
186.946853 0.00259851
187.111679 0.0014471500000000001
187.944473 0.06718206
188.944601 0.00221488
189.127329 0.0052964
189.941424 0.0068923199999999995
192.961547 0.0035864800000000004
194.999764 0.00565639
199.111682 0.01722601
200.114906 0.009406560000000001
200.934549 0.035782430000000004
202.098919 0.00399082
202.931325 0.00425369
204.983204 0.00134431
210.972033 0.0018920699999999998
214.130507 0.022658
214.252855 0.10587297
215.087801 0.00120972
215.107328 0.013406
215.125249 0.04621377
215.14304 0.08429983999999999
215.256381 0.033697620000000005
215.958042 0.02093611
216.128345 0.003106
216.146715 0.013719440000000001
216.25981 0.0013330800000000002
217.104623 1.0
217.12177 0.04957957
217.531643 0.00240332
217.953791 0.00441802
218.107818 0.055355470000000004
218.117548 0.01286078
218.12658 0.00257491
218.151287 0.0104875
218.945166 0.04025353
220.94182 0.00481148
END IONS

BEGIN IONS
CHARGE=1+
INCHIKEY=FWKQNCXZGNBPFD-UHFFFAOYSA-N
INSTRUMENT_TYPE=ESI-QFT
INSTRUMENT=Thermo Q Exactive HF
COLLISION_ENERGY=65HCD
FORMULA=C15H18
INCHI=InChI=1S/C15H18/c1-10(2)13-7-5-11(3)14-8-6-12(4)15(14)9-13/h5-10H,1-4H3
AUTHOR=Arpana Vaniya
SPLASH=splash10-0409-0900000000-abc7662015031fb9a025
SUBMITTER=submitter = Arpana Vaniya (University of California, Davis)
SYNON_$=00in-source
COMPUTED_SMILES=C=1C=C(C2=CC=C(C2=CC1C(C)C)C)C
COMPUTED_[2M+H-H2O]+=379.274331152
COMPUTED_[2M+K]+=435.380001152
COMPUTED_[M+H]+=199.148820576
COMPUTED_[2M+NA]+=419.271471152
COMPUTED_[2M+CL]-=431.73470115199996
COMPUTED_[2M+HAC-H]-=455.325731152
COMPUTED_[M-H20-H]-=179.12246057599998
COMPUTED_[M-H]-=197.133574576
COMPUTED_[2M-H]-=395.274425152
COMPUTED_[M+NA]+=221.13062057599998
COMPUTED_[M+H-H2O]+=181.13348057599998
COMPUTED_[2M+NH4]+=414.320281152
COMPUTED_[M+CL]-=233.593850576
COMPUTED_[M+NH4]+=216.179430576
COMPUTED_[M+K]+=237.239150576
COMPUTED_[2M+H]+=397.289671152
COMPUTED_[M+HAC-H]-=257.184880576
RAW_FILENAME=NP_UC_2800_p10_H11_6.raw
AVERAGED_SCANS=14
SOURCE_INTRODUCTION=direct injection
COMPUTED_SPECTRAL_ENTROPY=2.4288903850547023
COMPUTED_NORMALIZED_ENTROPY=0.45108972275602255
COMPUTED_MASS_ACCURACY=569.988981727286
COMPUTED_MASS_ERROR=-0.1351466697499859
MONA_RATING=4.166666666666666
NUM_PEAKS=239
COMPOUND_NAME=GUAIAZULENE
SPECTRUM_ID=VF-NPL-QEHF028257
ADDUCT=[M+K]+
MS_LEVEL=MS2
PRECURSOR_MZ=237.10400390625
IONMODE=positive
NOMINAL_MASS=198
PARENT_MASS=198.140850576
SMILES=Cc1ccc(C(C)C)cc2c(C)ccc1-2
50.593279 0.00044907000000000004
51.016195 0.00027454
52.495413 0.00028448
55.054523 0.0018666099999999999
55.442481 0.00027316
56.965015 0.03632057
57.070188 0.00211326
57.935077 0.00045058
58.932973 0.00038881
60.614826 0.00028583
61.010842 0.21743514
61.012635 0.00411972
62.01865 0.00231898
62.424676 0.00032094999999999997
62.824879 0.00025718999999999997
63.558171 0.00031755
63.997901 0.00121825
65.086223 0.00032903
66.943894 0.00026177
67.054314 0.00053787
67.366486 0.00026531
69.069801 0.00026772
69.315668 0.00027258999999999996
69.593269 0.00029394
70.524655 0.00025377
71.516149 0.00028337999999999996
72.861718 0.00032015
73.259457 0.00028345
76.99832 0.00033321
77.674362 0.0002995
78.088391 0.00036432
79.0212 0.01754466
79.446119 0.0002739
79.825059 0.00027735
80.920924 0.00038045
82.960368 0.00026879
82.998021 0.01199168
84.031215 0.00027065
86.003446 0.00165903
86.448399 0.00028566
86.975273 0.00029428
87.392346 0.00029775
89.059697 0.0024852299999999997
90.277224 0.00034306999999999995
91.054246 0.00199517
91.057247 0.00041853
94.063435 0.00034356999999999996
95.085582 0.00037636999999999995
96.311864 0.00026597
96.906065 0.00027055
97.889478 0.00030098
98.975306 0.0025575
99.510443 0.00031302
100.504707 0.00335035
100.991011 0.00029511
101.008296 0.21724736
101.998604 0.00238342
103.977502 0.0010134200000000001
105.069672 0.00081017
105.474646 0.00031341
108.016357 0.007709549999999999
108.493369 0.0017907799999999998
110.071207 0.0006471000000000001
110.33968 0.00030126
112.261657 0.00031235
112.823558 0.00030039
115.023876 0.0005757700000000001
116.005166 0.00026304999999999997
117.877829 0.00037701
119.001116 0.10886713
119.018886 0.66512487
121.988197 0.00488136
126.049046 0.00027886
126.581907 0.00028398
128.176883 0.00030288
130.572173 0.00029926999999999997
131.085352 0.00026403
133.034456 0.00741748
133.988135 0.01641751
134.168607 0.00030963999999999997
134.693375 0.00025784
134.978642 0.00599136
137.011696 0.66441055
137.029297 0.10928953999999999
137.096206 0.00033933
137.611927 0.00027381
141.455803 0.00028227
145.585795 0.00030162
145.988176 0.13105354
148.276456 0.0002913
151.027388 0.00440162
151.992421 0.00048897
151.998771 0.10846510999999999
152.989477 0.00038962999999999997
153.959053 0.00106924
154.977752 0.00025278
155.022168 0.20654991
161.0116 0.09901222999999999
161.722186 0.00027744
162.9909 0.0013335600000000001
163.998634 1.0
167.616363 0.00026376
169.802611 0.00028413
170.009317 0.03078817
178.01441 0.01001279
179.022202 0.6260089099999999
181.652337 0.00030085
182.00923 0.20628083
182.386777 0.00028466
184.19491 0.00027435000000000003
187.15459 0.00028543
193.037899 0.00351691
193.73602 0.00029266
196.504763 0.00025404
197.012036 0.0026419399999999997
197.032763 0.06593661
197.096182 0.00048171
197.700828 0.00027221
203.409655 0.00028798
206.030403 0.00026772
207.377696 0.00030535
211.111533 0.00058796
214.566981 0.00037137000000000004
219.990313 0.00385905
238.032093 0.0002547
238.470334 0.00029484
239.084817 0.0004942400000000001
254.271337 0.00031032
END IONS

BEGIN IONS
CHARGE=1+
INCHIKEY=FWKQNCXZGNBPFD-UHFFFAOYSA-N
INSTRUMENT_TYPE=ESI-QFT
INSTRUMENT=Thermo Q Exactive HF
COLLISION_ENERGY=45HCD
FORMULA=C15H18
INCHI=InChI=1S/C15H18/c1-10(2)13-7-5-11(3)14-8-6-12(4)15(14)9-13/h5-10H,1-4H3
AUTHOR=Arpana Vaniya
SPLASH=splash10-004i-0900000000-dda0fce266c05c6596e3
SUBMITTER=submitter = Arpana Vaniya (University of California, Davis)
SYNON_$=00in-source
COMPUTED_SMILES=C=1C=C(C2=CC=C(C2=CC1C(C)C)C)C
COMPUTED_[2M+H-H2O]+=379.274331152
COMPUTED_[2M+K]+=435.380001152
COMPUTED_[M+H]+=199.148820576
COMPUTED_[2M+NA]+=419.271471152
COMPUTED_[2M+CL]-=431.73470115199996
COMPUTED_[2M+HAC-H]-=455.325731152
COMPUTED_[M-H20-H]-=179.12246057599998
COMPUTED_[M-H]-=197.133574576
COMPUTED_[2M-H]-=395.274425152
COMPUTED_[M+NA]+=221.13062057599998
COMPUTED_[M+H-H2O]+=181.13348057599998
COMPUTED_[2M+NH4]+=414.320281152
COMPUTED_[M+CL]-=233.593850576
COMPUTED_[M+NH4]+=216.179430576
COMPUTED_[M+K]+=237.239150576
COMPUTED_[2M+H]+=397.289671152
COMPUTED_[M+HAC-H]-=257.184880576
RAW_FILENAME=NP_UC_2800_p10_H11_6.raw
AVERAGED_SCANS=14
SOURCE_INTRODUCTION=direct injection
COMPUTED_SPECTRAL_ENTROPY=1.8467081811453558
COMPUTED_NORMALIZED_ENTROPY=0.3435558200121162
COMPUTED_MASS_ACCURACY=569.988981727286
COMPUTED_MASS_ERROR=-0.1351466697499859
MONA_RATING=4.166666666666666
NUM_PEAKS=246
COMPOUND_NAME=GUAIAZULENE
SPECTRUM_ID=VF-NPL-QEHF028256
ADDUCT=[M+K]+
MS_LEVEL=MS2
PRECURSOR_MZ=237.10400390625
IONMODE=positive
NOMINAL_MASS=198
PARENT_MASS=198.140850576
SMILES=Cc1ccc(C(C)C)cc2c(C)ccc1-2
52.468995 0.00011302
54.653493 0.00012109
55.050868 0.00010558
55.054498 0.00017284
55.536802 0.00011944
56.965011 0.00387457
57.070082 0.00094993
58.249458 0.00014338
58.982073 0.00011788
59.120914 0.00011392
59.662156 0.00011070999999999999
61.010822 0.06349874
62.018626 0.00061618
62.219725 0.00010405
62.322372 0.00010815
62.799538 0.00011642
64.097229 0.00010828000000000001
65.126151 0.00010474
65.60022 0.00010680999999999999
69.598882 0.00010994000000000001
70.374502 0.00010558
75.353551 0.00011474
75.892824 0.00011706
77.899785 0.00010444999999999999
79.021179 0.0088907
79.028973 0.00011231
80.596242 0.00011629
80.596779 0.00012009000000000001
80.9208 0.00010292000000000001
81.069857 0.00016295
82.998092 0.0021784300000000003
84.602715 0.00010928999999999999
87.043974 0.00012383
89.059634 0.008719
91.36931 0.00012318
92.308075 0.00013675
94.634578 0.00012616
95.085444 0.00019782
98.496194 0.00012152
98.9753 0.00067786
101.004858 0.00016043
101.008276 0.01169556
101.995468 0.00016029000000000003
101.99891 0.00272322
102.784953 0.0001031
105.269544 0.0001223
106.555392 0.00012975
108.016349 0.0025691399999999997
108.551903 0.00012357
109.014384 0.00010439000000000001
110.071218 0.00021088
110.106524 0.00013642
110.207128 0.00011481
111.173274 0.00014504
111.27241 0.00014327
115.02417 0.00012382000000000002
115.17721 0.00011297
116.005162 0.00179596
116.154168 0.00012021
116.986091 0.00010978999999999999
117.857356 0.00013465
118.763044 0.00013023
119.00113 0.02383714
119.014468 0.00026450000000000003
119.018898 0.02881116
124.408846 0.00012387999999999999
125.010633 0.00011224
125.500149 0.00010437
129.724889 0.00012529000000000002
130.506174 0.00041820000000000003
131.018677 0.00036163
132.020326 0.00011343
134.14183 0.00011102
134.978593 0.00412441
136.579988 0.00019658999999999999
137.011723 0.13329974
137.029295 0.00363079
137.954053 0.00022447000000000002
138.017869 0.00010702
139.016216 0.00010494
143.273799 0.00013613
145.988063 0.02024105
149.028796 0.00011683
151.027107 0.00019295
151.998739 0.00201855
152.732676 0.00012017999999999999
152.951314 0.00040173
152.989175 0.00098608
153.959135 0.00074934
155.022118 0.04189436
155.954661 0.000522
160.064632 0.00012387
160.114859 0.00012738
161.011507 0.16084938000000001
163.530766 0.00010737999999999999
163.998597 0.12356968
164.01015 0.00027455
164.327516 0.00013179
166.027467 0.0001082
175.069567 0.0006735900000000001
175.57037 0.0003413
175.587235 0.00120718
178.03827 0.00010197
179.007576 0.0001403
179.022072 1.0
179.776224 0.00015224
181.026312 0.0010910400000000002
181.634917 0.00012428
182.009071 0.024937749999999998
193.037872 0.01152241
196.991817 0.00011974
197.011726 0.00376296
197.032656 0.10710004
202.038216 0.0011487799999999999
211.047458 0.00020587
211.528125 0.00011488
215.022475 0.00026263
216.908082 0.00392851
216.917308 0.00033780999999999997
221.641272 0.00010748000000000001
223.063323 0.00018671
225.043168 0.00017765
235.216028 0.00011693000000000001
237.078698 0.0001156
239.085387 0.00025913
239.106687 0.00013144
250.625043 0.00011353
254.160431 0.00012702
END IONS

BEGIN IONS
CHARGE=1+
INCHIKEY=FWKQNCXZGNBPFD-UHFFFAOYSA-N
INSTRUMENT_TYPE=ESI-QFT
INSTRUMENT=Thermo Q Exactive HF
COLLISION_ENERGY=35HCD
FORMULA=C15H18
INCHI=InChI=1S/C15H18/c1-10(2)13-7-5-11(3)14-8-6-12(4)15(14)9-13/h5-10H,1-4H3
AUTHOR=Arpana Vaniya
SPLASH=splash10-004i-0900000000-19e4da90311d7388630c
SUBMITTER=submitter = Arpana Vaniya (University of California, Davis)
SYNON_$=00in-source
COMPUTED_SMILES=C=1C=C(C2=CC=C(C2=CC1C(C)C)C)C
COMPUTED_[2M+H-H2O]+=379.274331152
COMPUTED_[2M+K]+=435.380001152
COMPUTED_[M+H]+=199.148820576
COMPUTED_[2M+NA]+=419.271471152
COMPUTED_[2M+CL]-=431.73470115199996
COMPUTED_[2M+HAC-H]-=455.325731152
COMPUTED_[M-H20-H]-=179.12246057599998
COMPUTED_[M-H]-=197.133574576
COMPUTED_[2M-H]-=395.274425152
COMPUTED_[M+NA]+=221.13062057599998
COMPUTED_[M+H-H2O]+=181.13348057599998
COMPUTED_[2M+NH4]+=414.320281152
COMPUTED_[M+CL]-=233.593850576
COMPUTED_[M+NH4]+=216.179430576
COMPUTED_[M+K]+=237.239150576
COMPUTED_[2M+H]+=397.289671152
COMPUTED_[M+HAC-H]-=257.184880576
AVERAGED_SCANS=14
RAW_FILENAME=NP_UC_2800_p10_H11_6.raw
SOURCE_INTRODUCTION=direct injection
COMPUTED_SPECTRAL_ENTROPY=1.3810277085875589
COMPUTED_NORMALIZED_ENTROPY=0.2503016762449297
COMPUTED_MASS_ACCURACY=569.988981727286
COMPUTED_MASS_ERROR=-0.1351466697499859
MONA_RATING=4.166666666666666
NUM_PEAKS=294
COMPOUND_NAME=GUAIAZULENE
SPECTRUM_ID=VF-NPL-QEHF028255
ADDUCT=[M+K]+
MS_LEVEL=MS2
PRECURSOR_MZ=237.10400390625
IONMODE=positive
NOMINAL_MASS=198
PARENT_MASS=198.140850576
SMILES=Cc1ccc(C(C)C)cc2c(C)ccc1-2
51.686229 5.273e-05
53.612177 4.9059999999999994e-05
55.054416 6.48e-05
56.96497 0.00042944
57.070011 0.0021446
59.049311 0.00010373999999999999
61.010813 0.018204849999999998
62.018565 0.0006735900000000001
67.654942 5.405e-05
71.265166 5.373e-05
73.534118 5.2709999999999995e-05
74.70155 5.005e-05
76.130896 6.323e-05
78.287571 5.5110000000000006e-05
79.021194 0.00814535
80.660342 5.219e-05
82.059742 5.4260000000000006e-05
82.215439 5.935e-05
82.995761 0.00013874
82.998258 0.00249414
84.437111 4.9579999999999996e-05
87.043841 0.00011506
87.413057 5.2209999999999996e-05
88.355603 5.307e-05
89.059638 0.01117431
95.08538 0.00019127
95.390176 5.529e-05
98.975163 0.00040749
101.002952 0.00027475
101.008466 0.0038272000000000002
101.998942 0.0029793199999999997
103.820355 5.214e-05
106.466774 5.5440000000000005e-05
108.016377 0.00050994
110.070981 8.342000000000001e-05
110.722024 5.283e-05
116.005091 0.0018454499999999998
119.001147 0.00446429
119.018879 0.0039521899999999995
120.009096 5.1110000000000004e-05
121.347223 4.946e-05
130.506251 0.0006817199999999999
130.796727 4.896e-05
131.085305 6.791e-05
133.085809 0.00205094
134.978557 0.0036523299999999996
137.011703 0.02594323
137.017704 8.709e-05
137.028998 0.00015312
138.018013 0.00083242
139.016467 5.62e-05
144.769474 5.543e-05
145.539572 5.874e-05
145.988028 0.00546848
152.951326 5.203e-05
152.989257 0.00150762
153.958973 0.00117505
155.02218 0.00882541
155.954632 0.00058956
158.904106 5.421e-05
159.080538 0.00010975
160.063909 0.00020506
161.011569 0.1416526
162.455848 7.827000000000001e-05
163.537248 5.647e-05
163.998579 0.01771499
166.064393 0.00011131
166.581818 0.00041153
167.589382 0.00026194
167.965319 5.267e-05
168.936424 5.495e-05
172.817791 7.041e-05
173.478868 5.009e-05
174.579387 0.00028775999999999997
175.069373 0.0009102499999999999
175.570363 0.00068649
175.587364 0.0032799099999999996
176.068173 0.00026778
176.089425 0.00010858
176.989672 9.372e-05
177.057776 0.00022517
177.584945 5.479e-05
178.04796 6.035e-05
179.007571 0.0009639599999999999
179.022124 1.0
180.027088 7.094e-05
180.618374 5.586e-05
181.026316 0.00206222
182.009025 0.0035488399999999997
184.592403 0.00031843
187.074413 7.927999999999999e-05
190.065756 0.00015332
192.961804 0.00013689
193.037882 0.01124745
197.011885 0.00367764
197.032689 0.11653622000000001
197.095418 7.753e-05
199.036961 0.00010026
202.038251 0.00202292
203.106125 0.00018318999999999999
205.071537 7.457e-05
205.571418 0.00013071
206.070001 0.00010794
207.340464 5.213e-05
211.048029 0.00065753
215.022613 0.00058836
216.906164 0.00164962
216.915767 0.00059883
216.922014 0.00047504
219.679424 5.1240000000000004e-05
223.063744 0.00017503
225.042419 0.00034019
227.021305 5.575e-05
235.11915 0.00081715
235.131743 0.00018066
235.216301 0.00029206
236.163462 0.00066142
237.078958 0.00100531
237.110155 0.00012106000000000001
237.126342 0.00042382000000000005
237.1467 0.0002249
238.141386 0.00172123
238.179442 0.00010635999999999999
239.025646 0.00384341
239.086434 0.00035812999999999996
239.106803 0.00017437
239.125504 0.00038085
239.142804 0.00028967
END IONS

BEGIN IONS
CHARGE=1+
INCHIKEY=FWKQNCXZGNBPFD-UHFFFAOYSA-N
INSTRUMENT_TYPE=ESI-QFT
INSTRUMENT=Thermo Q Exactive HF
COLLISION_ENERGY=65HCD
FORMULA=C15H18
INCHI=InChI=1S/C15H18/c1-10(2)13-7-5-11(3)14-8-6-12(4)15(14)9-13/h5-10H,1-4H3
AUTHOR=Arpana Vaniya
SPLASH=splash10-03di-3900000000-7b97698554281d72cc2e
SUBMITTER=submitter = Arpana Vaniya (University of California, Davis)
SYNON_$=00in-source
COMPUTED_SMILES=C=1C=C(C2=CC=C(C2=CC1C(C)C)C)C
COMPUTED_[2M+H-H2O]+=379.274331152
COMPUTED_[2M+K]+=435.380001152
COMPUTED_[M+H]+=199.148820576
COMPUTED_[2M+NA]+=419.271471152
COMPUTED_[2M+CL]-=431.73470115199996
COMPUTED_[2M+HAC-H]-=455.325731152
COMPUTED_[M-H20-H]-=179.12246057599998
COMPUTED_[M-H]-=197.133574576
COMPUTED_[2M-H]-=395.274425152
COMPUTED_[M+NA]+=221.13062057599998
COMPUTED_[M+H-H2O]+=181.13348057599998
COMPUTED_[2M+NH4]+=414.320281152
COMPUTED_[M+CL]-=233.593850576
COMPUTED_[M+NH4]+=216.179430576
COMPUTED_[M+K]+=237.239150576
COMPUTED_[2M+H]+=397.289671152
COMPUTED_[M+HAC-H]-=257.184880576
RAW_FILENAME=NP_UC_2800_p10_H11_4.raw
AVERAGED_SCANS=13
SOURCE_INTRODUCTION=direct injection
COMPUTED_SPECTRAL_ENTROPY=4.026788064703868
COMPUTED_NORMALIZED_ENTROPY=0.6847658322836049
COMPUTED_MASS_ACCURACY=2.5082886350309703
COMPUTED_MASS_ERROR=-5.546580312056903E-4
MONA_RATING=4.583333333333334
NUM_PEAKS=554
COMPOUND_NAME=GUAIAZULENE
SPECTRUM_ID=VF-NPL-QEHF028254
ADDUCT=[M+Na]+
MS_LEVEL=MS2
PRECURSOR_MZ=221.13006591796878
IONMODE=positive
NOMINAL_MASS=198
PARENT_MASS=198.140850576
SMILES=Cc1ccc(C(C)C)cc2c(C)ccc1-2
51.940269 0.02719483
53.939317 0.01506484
55.054509 0.04053904
56.965048 0.22266235
57.070125 0.06574187000000001
57.935018 0.0065756700000000005
61.01084 0.25732866
61.927978 0.00574778
62.018661 0.10094194999999999
63.006596 0.009312289999999999
63.927545 0.01963078
63.942448 0.00914353
63.997872 0.037281049999999996
67.054316 0.02260797
67.934909 0.005674
68.942747 0.00689827
69.069918 0.0208982
70.941816 0.010599270000000001
73.991291 0.01280014
74.975346 0.00953572
79.021203 0.17720859
79.054182 0.0184343
80.945022 0.03525301
81.069854 0.02566933
81.94492 0.01606121
82.941802 0.015840129999999997
84.080732 0.01104624
84.959682 0.03261588
86.00353 0.025945100000000002
88.952309 0.027968760000000002
91.054138 0.03384547
91.057319 0.024512580000000003
93.069863 0.01978839
95.008789 0.00609293
95.049065 0.01725867
95.085459 0.013009219999999998
98.955588 0.01245655
102.948085 0.01556996
105.069879 0.03726032
106.962931 0.00619985
107.08547 0.00755951
108.493408 0.02100041
115.969971 0.00735942
116.929494 0.00622112
116.96615 0.27413277999999996
117.069806 0.01166579
117.966031 0.13485148
118.943056 0.01484111
118.963001 0.13256908
119.085478 0.02516194
119.950885 0.032550300000000004
121.06473 0.00930026
121.101102 0.014341759999999999
122.940203 0.006670700000000001
128.061972 0.00627982
128.963724 0.02464173
129.069742 0.01730596
129.985648 0.00635271
130.943012 0.015017929999999999
130.962872 0.025129890000000002
130.981757 0.24283501999999998
131.085508 0.03431981
131.953314 0.04261941
131.981429 0.11838179
132.953013 0.01832663
132.978575 0.12851421999999998
133.064723 0.008160309999999999
133.101164 0.020307759999999998
133.949996 0.01930802
134.939951 0.00611901
134.978566 0.03549651
135.080312 0.005782239999999999
136.580291 0.02307457
137.011748 0.03068323
142.077669 0.0070523
142.981782 0.00665405
142.991844 0.0074983
143.085523 0.007450630000000001
144.958652 0.07004892
144.971 0.01781599
144.997442 0.09913442
145.960488 0.009716510000000001
145.978792 0.29132152
145.996654 0.051798859999999995
146.957284 0.022770969999999998
146.974446 0.14987911
146.99431 0.05741207
147.067837 0.04749163
147.974778 0.02222226
148.07108 0.01012923
148.973333 0.05188089
152.989164 0.05212662
153.056606 0.012739579999999999
155.022297 0.01560478
156.997557 0.01417392
158.99414 0.007445770000000001
159.01311 0.05947888
159.08041 0.011675040000000001
159.951847 0.011923729999999999
160.012598 0.03579877
161.002236 1.0
161.009448 0.0311347
161.096053 0.05103259
162.006083 0.01377027
162.06185 0.01690113
162.091333 0.02490226
162.998038 0.028026399999999996
163.989236 0.03597049
164.967261 0.007453619999999999
164.986948 0.00571632
175.017857 0.023964759999999998
177.127326 0.0203204
179.012839 0.02061172
179.954313 0.00870518
187.111625 0.00855076
191.085449 0.00718025
197.096036 0.02009014
203.143061 0.02048271
205.982066 0.01062384
206.977624 0.0706328
207.978254 0.00737746
211.111677 0.00629093
212.119491 0.009417189999999999
220.117157 0.005691730000000001
225.042722 0.028875320000000003
227.022063 0.045239510000000004
231.994932 0.08996208
238.967542 0.01563212
END IONS

BEGIN IONS
CHARGE=1+
INCHIKEY=FWKQNCXZGNBPFD-UHFFFAOYSA-N
INSTRUMENT_TYPE=ESI-QFT
INSTRUMENT=Thermo Q Exactive HF
COLLISION_ENERGY=45HCD
FORMULA=C15H18
INCHI=InChI=1S/C15H18/c1-10(2)13-7-5-11(3)14-8-6-12(4)15(14)9-13/h5-10H,1-4H3
AUTHOR=Arpana Vaniya
SPLASH=splash10-03di-2920000000-76cd524898dd4adc5f52
SUBMITTER=submitter = Arpana Vaniya (University of California, Davis)
SYNON_$=00in-source
COMPUTED_SMILES=C=1C=C(C2=CC=C(C2=CC1C(C)C)C)C
COMPUTED_[2M+H-H2O]+=379.274331152
COMPUTED_[2M+K]+=435.380001152
COMPUTED_[M+H]+=199.148820576
COMPUTED_[2M+NA]+=419.271471152
COMPUTED_[2M+CL]-=431.73470115199996
COMPUTED_[2M+HAC-H]-=455.325731152
COMPUTED_[M-H20-H]-=179.12246057599998
COMPUTED_[M-H]-=197.133574576
COMPUTED_[2M-H]-=395.274425152
COMPUTED_[M+NA]+=221.13062057599998
COMPUTED_[M+H-H2O]+=181.13348057599998
COMPUTED_[2M+NH4]+=414.320281152
COMPUTED_[M+CL]-=233.593850576
COMPUTED_[M+NH4]+=216.179430576
COMPUTED_[M+K]+=237.239150576
COMPUTED_[2M+H]+=397.289671152
COMPUTED_[M+HAC-H]-=257.184880576
RAW_FILENAME=NP_UC_2800_p10_H11_4.raw
AVERAGED_SCANS=13
SOURCE_INTRODUCTION=direct injection
COMPUTED_SPECTRAL_ENTROPY=4.029134992140275
COMPUTED_NORMALIZED_ENTROPY=0.676208091855821
COMPUTED_MASS_ACCURACY=2.5082886350309703
COMPUTED_MASS_ERROR=-5.546580312056903E-4
MONA_RATING=4.583333333333334
NUM_PEAKS=560
COMPOUND_NAME=GUAIAZULENE
SPECTRUM_ID=VF-NPL-QEHF028253
ADDUCT=[M+Na]+
MS_LEVEL=MS2
PRECURSOR_MZ=221.13006591796878
IONMODE=positive
NOMINAL_MASS=198
PARENT_MASS=198.140850576
SMILES=Cc1ccc(C(C)C)cc2c(C)ccc1-2
55.054524 0.01846138
56.965045 0.06693713
57.070132 0.0990404
61.01084 0.13349732
62.018664 0.0694825
63.997937 0.00844219
67.05432 0.00949359
69.069969 0.012358860000000001
79.021199 0.21769607000000002
80.945137 0.0057418999999999994
81.069917 0.01334862
83.085498 0.00599907
84.080808 0.00726895
84.959722 0.02084982
88.952377 0.01480341
91.057393 0.020208
94.026265 0.007803
95.049208 0.00717581
95.085509 0.01393974
105.069909 0.00771054
107.085508 0.0056936600000000006
108.493376 0.00988229
116.005263 0.01563447
116.966144 0.08795449
117.966049 0.04041994
118.963018 0.03892488
119.085499 0.00872205
119.950925 0.01163049
121.101121 0.00686798
127.574981 0.011397580000000001
130.943015 0.0096877
130.962952 0.013559159999999999
130.981813 0.12235383000000001
131.085572 0.02662449
131.953026 0.01247268
131.981421 0.056159169999999994
132.978644 0.05925212
133.101088 0.0077211499999999995
134.978654 0.04354616
135.080418 0.013532919999999999
136.580222 0.0606372
137.011834 0.02003444
137.081984 0.00593846
142.991883 0.01254767
144.958763 0.029201809999999998
144.997442 0.1051881
145.585445 0.01898716
145.978759 0.01842075
145.996739 0.053294829999999994
146.956803 0.0058632300000000005
146.97492 0.05549456
146.994213 0.06182115
147.067803 0.01259042
148.973462 0.030452689999999998
149.96349 0.007427510000000001
152.9892 0.06727322
153.056522 0.014549749999999998
153.959192 0.00620362
155.022063 0.0060634600000000006
155.507989 0.01115381
156.997422 0.02274764
157.997262 0.00853048
158.016884 0.0088388
158.974306 0.00800709
158.994306 0.014648650000000001
159.012987 0.26855429999999997
159.080431 0.02001481
159.952205 0.02833679
160.012624 0.1478643
160.95145 0.009706280000000001
161.002272 1.0
161.009738 0.19019703
161.017722 0.01270979
161.053817 0.011724030000000002
161.095972 0.020017399999999998
162.006235 0.01686801
162.061728 0.011612560000000001
162.091257 0.06585164
162.998019 0.023146629999999998
163.027601 0.009382930000000001
163.094639 0.01994052
163.977097 0.008819559999999999
166.581946 0.00726507
170.999784 0.006908269999999999
173.132425 0.012760819999999999
173.974545 0.00552287
174.971075 0.012754060000000001
175.017735 0.023034509999999998
175.546489 0.010487439999999999
177.060932 0.01095285
177.127263 0.06525478
177.992769 0.01032783
178.966009 0.020962679999999997
179.01281 0.023562189999999997
179.070246 0.01777613
180.984122 0.00552427
183.058329 0.03561216
187.0752 0.00856501
187.111736 0.01643401
188.967057 0.03372688
190.966142 0.02817323
191.941473 0.0118929
193.086045 0.00683549
201.127297 0.01023219
203.143091 0.04954806
204.146611 0.01038877
205.982116 0.1550769
206.977692 0.2951743
207.977516 0.04781587
208.975435 0.02662215
212.119446 0.026003639999999998
213.984927 0.00694303
217.522097 0.010690729999999999
219.138021 0.01477381
219.174285 0.07125971
220.168231 0.006206509999999999
220.178724 0.01972941
220.205838 0.012959469999999999
221.005534 0.13996076000000002
221.117203 0.008940700000000001
221.1324 0.01489488
222.112312 0.011592910000000001
222.185194 0.00673246
225.042934 0.06512520000000001
227.022013 0.01993797
231.994912 0.09265068
238.967425 0.05634079
239.968274 0.005986679999999999
END IONS

BEGIN IONS
CHARGE=1+
INCHIKEY=FWKQNCXZGNBPFD-UHFFFAOYSA-N
INSTRUMENT_TYPE=ESI-QFT
INSTRUMENT=Thermo Q Exactive HF
COLLISION_ENERGY=35HCD
FORMULA=C15H18
INCHI=InChI=1S/C15H18/c1-10(2)13-7-5-11(3)14-8-6-12(4)15(14)9-13/h5-10H,1-4H3
AUTHOR=Arpana Vaniya
SPLASH=splash10-08fr-1940000000-9331745760370ecf983a
SUBMITTER=submitter = Arpana Vaniya (University of California, Davis)
SYNON_$=00in-source
COMPUTED_SMILES=C=1C=C(C2=CC=C(C2=CC1C(C)C)C)C
COMPUTED_[2M+H-H2O]+=379.274331152
COMPUTED_[2M+K]+=435.380001152
COMPUTED_[M+H]+=199.148820576
COMPUTED_[2M+NA]+=419.271471152
COMPUTED_[2M+CL]-=431.73470115199996
COMPUTED_[2M+HAC-H]-=455.325731152
COMPUTED_[M-H20-H]-=179.12246057599998
COMPUTED_[M-H]-=197.133574576
COMPUTED_[2M-H]-=395.274425152
COMPUTED_[M+NA]+=221.13062057599998
COMPUTED_[M+H-H2O]+=181.13348057599998
COMPUTED_[2M+NH4]+=414.320281152
COMPUTED_[M+CL]-=233.593850576
COMPUTED_[M+NH4]+=216.179430576
COMPUTED_[M+K]+=237.239150576
COMPUTED_[2M+H]+=397.289671152
COMPUTED_[M+HAC-H]-=257.184880576
RAW_FILENAME=NP_UC_2800_p10_H11_4.raw
AVERAGED_SCANS=13
SOURCE_INTRODUCTION=direct injection
COMPUTED_SPECTRAL_ENTROPY=4.177875611831077
COMPUTED_NORMALIZED_ENTROPY=0.689784480131069
COMPUTED_MASS_ACCURACY=2.5082886350309703
COMPUTED_MASS_ERROR=-5.546580312056903E-4
MONA_RATING=4.583333333333334
NUM_PEAKS=703
COMPOUND_NAME=GUAIAZULENE
SPECTRUM_ID=VF-NPL-QEHF028252
ADDUCT=[M+Na]+
MS_LEVEL=MS2
PRECURSOR_MZ=221.13006591796878
IONMODE=positive
NOMINAL_MASS=198
PARENT_MASS=198.140850576
SMILES=Cc1ccc(C(C)C)cc2c(C)ccc1-2
55.054545 0.02055533
56.965052 0.03632988
57.070124 0.19108956
61.01084 0.1354826
62.018665 0.09631194000000001
69.069964 0.01771893
79.02119 0.38997453
81.018671 0.0222784
81.069906 0.01792584
84.959696 0.01636001
88.952324 0.014976380000000001
91.057379 0.02191135
94.026332 0.02550428
95.085547 0.01680475
116.005236 0.034638140000000005
116.052751 0.01587951
116.966175 0.04887901
117.966107 0.02120497
118.962996 0.02145305
121.0647 0.01682974
130.962854 0.01450064
130.981838 0.09418694999999999
131.085491 0.02448943
131.981431 0.04365049
132.978586 0.04496517
134.978626 0.06576363
135.080381 0.0328905
136.580186 0.049878200000000004
137.011627 0.017653540000000002
142.991876 0.021895229999999998
144.958848 0.014593050000000002
144.997426 0.19740643
145.585455 0.01634478
145.996686 0.09863458
146.9746 0.03457183
146.994254 0.11445299
147.080296 0.013573630000000001
148.973431 0.037438690000000004
149.963554 0.021799940000000004
152.9892 0.10671283000000001
153.046248 0.012626159999999999
155.507971 0.0513286
156.997434 0.01562402
157.576577 0.04866091
158.016833 0.02470045
159.013027 0.61385092
159.080494 0.03443547
159.952247 0.04393434
159.982268 0.01760108
160.012285 0.37785752
160.951038 0.01970696
161.002124 1.0
161.009765 0.43333091
161.017582 0.049320899999999994
162.005624 0.01833905
162.09118 0.13568688
162.99789 0.02670935
163.02767 0.01813036
163.094617 0.0371984
163.942694 0.02228828
163.977067 0.026476829999999996
166.581908 0.08984236
167.08348 0.01365802
170.999844 0.014755750000000002
173.132477 0.0298823
173.963463 0.02206493
174.053035 0.031804229999999996
175.017769 0.02395193
175.546564 0.01366893
175.977054 0.01691093
177.060944 0.04111504
177.127337 0.11419747
177.992649 0.03698359
178.130533 0.01395427
178.966106 0.06616144
179.012831 0.02345504
179.070253 0.02857965
180.984064 0.02328735
181.953163 0.0152183
182.050476 0.01608878
183.058272 0.16764247999999998
183.539076 0.02691963
183.559955 0.03213561
185.055407 0.015593520000000001
187.075234 0.01516792
187.111735 0.022371330000000002
188.967131 0.05381939
190.065786 0.01472591
190.966236 0.06984097
191.055648 0.01659797
191.941778 0.02226845
192.063408 0.02405703
192.962087 0.01693197
193.085804 0.01801963
197.014984 0.015061960000000001
201.127402 0.030915349999999998
203.143042 0.0399374
205.982099 0.29929225
206.97773 0.59203077
207.976953 0.07202324
207.986568 0.024840369999999997
208.975732 0.06618349
219.1201 0.016114530000000002
219.13803 0.060128839999999996
219.174319 0.21042103999999998
220.017107 0.02513285
220.066737 0.01976425
220.141755 0.01579656
220.167608 0.02918539
220.178909 0.06136351
220.205648 0.02559015
220.956821 0.01385545
221.005348 0.86666089
221.117154 0.043172550000000004
221.131889 0.04107847
221.153269 0.01407432
222.00876 0.03964311
222.11217 0.06527572
222.147177 0.03005752
222.184865 0.019897929999999998
223.00103 0.05030332
225.042689 0.10917198
227.022049 0.025504020000000002
229.122127 0.01490782
231.994823 0.060550889999999996
238.967351 0.12849063
239.094676 0.014219649999999999
239.968217 0.01818895
END IONS

BEGIN IONS
CHARGE=1-
INCHIKEY=FWKQNCXZGNBPFD-UHFFFAOYSA-N
INSTRUMENT_TYPE=ESI-QFT
INSTRUMENT=Thermo Q Exactive HF
COLLISION_ENERGY=65HCD
FORMULA=C15H18
INCHI=InChI=1S/C15H18/c1-10(2)13-7-5-11(3)14-8-6-12(4)15(14)9-13/h5-10H,1-4H3
AUTHOR=Arpana Vaniya
SPLASH=splash10-03e9-7900000000-6490c1fdaaee41422cfc
SUBMITTER=submitter = Arpana Vaniya (University of California, Davis)
SYNON_$=00in-source
COMPUTED_SMILES=C=1C=C(C2=CC=C(C2=CC1C(C)C)C)C
COMPUTED_[2M+H-H2O]+=379.274331152
COMPUTED_[2M+K]+=435.380001152
COMPUTED_[M+H]+=199.148820576
COMPUTED_[2M+NA]+=419.271471152
COMPUTED_[2M+CL]-=431.73470115199996
COMPUTED_[2M+HAC-H]-=455.325731152
COMPUTED_[M-H20-H]-=179.12246057599998
COMPUTED_[M-H]-=197.133574576
COMPUTED_[2M-H]-=395.274425152
COMPUTED_[M+NA]+=221.13062057599998
COMPUTED_[M+H-H2O]+=181.13348057599998
COMPUTED_[2M+NH4]+=414.320281152
COMPUTED_[M+CL]-=233.593850576
COMPUTED_[M+NH4]+=216.179430576
COMPUTED_[M+K]+=237.239150576
COMPUTED_[2M+H]+=397.289671152
COMPUTED_[M+HAC-H]-=257.184880576
RAW_FILENAME=NP_UC_2800_p10_H11_9.raw
AVERAGED_SCANS=9
SOURCE_INTRODUCTION=direct injection
COMPUTED_SPECTRAL_ENTROPY=3.3559317888989857
COMPUTED_NORMALIZED_ENTROPY=0.6628876627511813
COMPUTED_MASS_ACCURACY=0.07302326350102037
COMPUTED_MASS_ERROR=-1.4395335909966889E-5
MONA_RATING=4.615384615384616
NUM_PEAKS=176
COMPOUND_NAME=GUAIAZULENE
SPECTRUM_ID=VF-NPL-QEHF028251
ADDUCT=[M-H]-
MS_LEVEL=MS2
PRECURSOR_MZ=197.1335601806641
IONMODE=negative
NOMINAL_MASS=198
PARENT_MASS=198.140850576
SMILES=Cc1ccc(C(C)C)cc2c(C)ccc1-2
50.37688 0.00297653
51.677235 0.00324433
52.534232 0.00301759
53.64882 0.00369646
54.889811 0.00306896
55.28409 0.0029474
57.033173 0.013737109999999999
57.140717 0.0030621399999999997
59.012411 0.20414107
61.98692 1.0
63.138971 0.0028810999999999997
63.877954 0.00288881
63.960978 0.013346579999999999
64.968768 0.00730979
67.01737 0.00319859
67.045339 0.00286107
68.170198 0.00313205
69.033181 0.01360719
69.827951 0.0031264500000000002
71.012511 0.0032324199999999997
71.048841 0.02415436
71.950163 0.00520869
72.517904 0.00303526
72.536073 0.0030547200000000004
73.027982 0.00432294
76.886083 0.0030047000000000003
78.651726 0.0029239500000000002
79.95596 0.5493924299999999
80.963803 0.0298743
81.033159 0.00886993
81.951858 0.00473244
83.048822 0.0166175
85.028168 0.01056028
85.064425 0.00370965
89.509513 0.00288235
91.919527 0.0030996400000000003
93.033184 0.08554413
94.257872 0.00293455
94.979569 0.00617101
95.012418 0.01675921
95.048838 0.00686422
95.933105 0.01790055
96.419923 0.00285725
96.958679 0.04332509
97.028211 0.00585369
97.04209 0.0030528100000000004
99.924393 0.03950738
101.059574 0.01623005
101.94567 0.00321681
103.91877 0.01763375
106.917134 0.053293280000000005
107.061526 0.00307544
107.202421 0.00311693
108.020538 0.01537867
109.028212 0.04548086
109.064502 0.033098260000000004
109.896174 0.00757044
110.45021 0.00315476
110.956688 0.12024877
110.974446 0.13615482
111.043703 0.00602385
111.080215 0.03962673
114.218076 0.0028669200000000002
114.525553 0.0030545499999999996
114.950185 0.01416125
115.039065 0.0033791100000000003
115.07514 0.00470636
116.397865 0.0029364
119.41291 0.00288137
121.027669 0.00293487
121.895575 0.0036736200000000003
122.035709 0.00288072
123.007417 0.00297207
125.02298 0.00721591
125.095987 0.00862228
125.891086 0.04643312
126.903108 0.00306649
127.154756 0.00295304
127.888413 0.00294215
133.064619 0.44253644999999997
133.851413 0.00314159
134.067944 0.02327849
134.99274 0.03194467
135.00779 0.0029863
135.043857 0.11620479
136.972005 0.01404414
137.023212 0.03927607
138.067185 0.0033886500000000004
139.890723 0.00830123
140.546298 0.0031149700000000003
140.999556 0.00311333
144.810823 0.00299816
146.020612 0.0029743599999999997
148.461315 0.00297036
150.987677 0.04599425
151.074601 0.00384247
152.916911 0.00333003
152.966949 0.0833638
154.789913 0.0028655399999999998
154.9139 0.0035091
156.893674 0.39762441000000004
163.17283 0.0033112000000000003
165.003283 0.04714717
165.018609 0.011029830000000001
165.121149 0.0033014700000000004
166.021738 0.00687033
166.983062 0.00309304
167.143119 0.0076954599999999995
170.072641 0.01508872
171.880695 0.00301242
178.640346 0.0031265999999999998
179.106535 0.0453514
179.819945 0.00289334
180.859302 0.00288391
183.080533 0.26993267
184.000557 0.0039012599999999997
184.088442 0.04812592
185.057015 0.00295386
186.104929 0.00293659
195.138155 0.08166349
196.141257 0.00818357
197.02701 0.28089106
198.029962 0.006319099999999999
199.022752 0.00393484
199.112106 0.09373417999999999
205.063394 0.00299081
219.924 0.02691967
219.958147 0.0072822600000000005
END IONS

BEGIN IONS
CHARGE=1-
INCHIKEY=FWKQNCXZGNBPFD-UHFFFAOYSA-N
INSTRUMENT_TYPE=ESI-QFT
INSTRUMENT=Thermo Q Exactive HF
COLLISION_ENERGY=45HCD
FORMULA=C15H18
INCHI=InChI=1S/C15H18/c1-10(2)13-7-5-11(3)14-8-6-12(4)15(14)9-13/h5-10H,1-4H3
AUTHOR=Arpana Vaniya
SPLASH=splash10-0002-2900000000-fcc95a410f612a7011f8
SUBMITTER=submitter = Arpana Vaniya (University of California, Davis)
SYNON_$=00in-source
COMPUTED_SMILES=C=1C=C(C2=CC=C(C2=CC1C(C)C)C)C
COMPUTED_[2M+H-H2O]+=379.274331152
COMPUTED_[2M+K]+=435.380001152
COMPUTED_[M+H]+=199.148820576
COMPUTED_[2M+NA]+=419.271471152
COMPUTED_[2M+CL]-=431.73470115199996
COMPUTED_[2M+HAC-H]-=455.325731152
COMPUTED_[M-H20-H]-=179.12246057599998
COMPUTED_[M-H]-=197.133574576
COMPUTED_[2M-H]-=395.274425152
COMPUTED_[M+NA]+=221.13062057599998
COMPUTED_[M+H-H2O]+=181.13348057599998
COMPUTED_[2M+NH4]+=414.320281152
COMPUTED_[M+CL]-=233.593850576
COMPUTED_[M+NH4]+=216.179430576
COMPUTED_[M+K]+=237.239150576
COMPUTED_[2M+H]+=397.289671152
COMPUTED_[M+HAC-H]-=257.184880576
RAW_FILENAME=NP_UC_2800_p10_H11_9.raw
AVERAGED_SCANS=9
SOURCE_INTRODUCTION=direct injection
COMPUTED_SPECTRAL_ENTROPY=3.420869750643223
COMPUTED_NORMALIZED_ENTROPY=0.6645698729842846
COMPUTED_MASS_ACCURACY=0.07302326350102037
COMPUTED_MASS_ERROR=-1.4395335909966889E-5
MONA_RATING=4.615384615384616
NUM_PEAKS=208
COMPOUND_NAME=GUAIAZULENE
SPECTRUM_ID=VF-NPL-QEHF028250
ADDUCT=[M-H]-
MS_LEVEL=MS2
PRECURSOR_MZ=197.1335601806641
IONMODE=negative
NOMINAL_MASS=198
PARENT_MASS=198.140850576
SMILES=Cc1ccc(C(C)C)cc2c(C)ccc1-2
57.033141 0.0203456
58.650628 0.00347347
59.012416 0.20196235999999998
61.986914 1.0
63.963558 0.00391887
67.002174 0.00344935
67.017519 0.00649456
69.033219 0.00894975
71.048795 0.0305064
71.579201 0.00338508
73.028187 0.00404735
79.074648 0.0039459
79.836892 0.00406722
79.955986 0.12475322
80.963757 0.01990642
81.033078 0.0034760299999999997
83.012442 0.00367741
83.048788 0.034456730000000005
83.769306 0.0037491
84.603225 0.0040491599999999996
85.064412 0.00656786
85.765466 0.0038172299999999996
93.033155 0.019093119999999998
93.280111 0.0036195500000000005
95.012659 0.0033767000000000003
95.048877 0.01700121
95.933038 0.0038403599999999997
96.454989 0.00372735
96.95869 0.02964346
97.028159 0.00983059
97.064554 0.012353590000000001
97.999406 0.01071796
99.924403 0.03730055
101.059437 0.032373349999999995
103.918896 0.030165459999999998
106.503213 0.00337866
106.917056 0.08968189
107.33398 0.003729
109.02814 0.03680416
109.064483 0.0799325
110.956634 0.20150168000000002
110.974424 0.17026163
111.007467 0.004683629999999999
111.043734 0.0165096
111.080162 0.08870570000000001
111.173889 0.00365659
112.952636 0.0056393300000000006
113.059528 0.0040035
114.054432 0.00443522
115.038721 0.09137100999999999
115.075092 0.08129898
115.919384 0.0156834
117.053962 0.00441898
117.815674 0.00345793
123.043474 0.00353587
125.023174 0.008636089999999999
125.059475 0.00829734
125.095945 0.02407558
125.891078 0.04821718
126.229214 0.0035773899999999997
127.03882 0.00474674
127.075028 0.0034028
128.033904 0.025212690000000003
133.064598 0.22710640999999998
135.043879 0.09566701999999999
137.023204 0.04296246
137.059473 0.0035901600000000002
137.096391 0.00381029
138.952721 0.0033824799999999998
139.038931 0.00337376
139.136415 0.00358966
147.480197 0.00395604
150.98778 0.05981385
151.074913 0.01073666
151.099661 0.0034930499999999997
152.884371 0.006236159999999999
152.966483 0.0052111300000000004
153.090715 0.027607620000000003
153.127288 0.0034769099999999997
153.922042 0.01596816
154.914399 0.0163577
155.106653 0.00791158
156.893637 0.45249208
156.900167 0.0038766499999999997
157.777996 0.00342549
160.840713 0.00911074
165.003288 0.20398617000000002
165.018492 0.00894753
166.00255 0.00417385
166.021476 0.01396897
166.982703 0.01680617
167.143001 0.12016531999999999
168.1464 0.00889946
170.072943 0.00429153
170.216655 0.00339828
177.55227 0.0034933900000000003
179.070288 0.0209903
179.106479 0.060210410000000006
180.10983 0.0036398000000000003
180.999945 0.02756134
181.045433 0.00432007
183.080618 0.01768742
184.000871 0.01742358
184.088497 0.05700176
190.866521 0.00338793
195.138277 0.9361539000000001
195.215608 0.00344454
196.141502 0.31929843
197.027141 0.8735772900000001
197.081252 0.00807598
197.095756 0.013910180000000001
197.117565 0.01372856
197.133041 0.029238780000000002
197.144203 0.00688997
197.15369 0.05166986
197.306665 0.0034827
197.902153 0.00425242
198.030645 0.04177834
198.058641 0.021371349999999997
199.006206 0.13050832
199.043032 0.00838705
199.075426 0.0066836099999999996
199.09684 0.00962318
199.111891 0.49991691000000005
199.133183 0.08865292999999999
199.169452 0.78722526
218.270286 0.03537515
218.278052 0.04583919
END IONS

BEGIN IONS
CHARGE=1-
INCHIKEY=FWKQNCXZGNBPFD-UHFFFAOYSA-N
INSTRUMENT_TYPE=ESI-QFT
INSTRUMENT=Thermo Q Exactive HF
COLLISION_ENERGY=35HCD
FORMULA=C15H18
INCHI=InChI=1S/C15H18/c1-10(2)13-7-5-11(3)14-8-6-12(4)15(14)9-13/h5-10H,1-4H3
AUTHOR=Arpana Vaniya
SPLASH=splash10-0002-1900000000-d94cb72c3b0730c72dba
SUBMITTER=submitter = Arpana Vaniya (University of California, Davis)
SYNON_$=00in-source
COMPUTED_SMILES=C=1C=C(C2=CC=C(C2=CC1C(C)C)C)C
COMPUTED_[2M+H-H2O]+=379.274331152
COMPUTED_[2M+K]+=435.380001152
COMPUTED_[M+H]+=199.148820576
COMPUTED_[2M+NA]+=419.271471152
COMPUTED_[2M+CL]-=431.73470115199996
COMPUTED_[2M+HAC-H]-=455.325731152
COMPUTED_[M-H20-H]-=179.12246057599998
COMPUTED_[M-H]-=197.133574576
COMPUTED_[2M-H]-=395.274425152
COMPUTED_[M+NA]+=221.13062057599998
COMPUTED_[M+H-H2O]+=181.13348057599998
COMPUTED_[2M+NH4]+=414.320281152
COMPUTED_[M+CL]-=233.593850576
COMPUTED_[M+NH4]+=216.179430576
COMPUTED_[M+K]+=237.239150576
COMPUTED_[2M+H]+=397.289671152
COMPUTED_[M+HAC-H]-=257.184880576
RAW_FILENAME=NP_UC_2800_p10_H11_9.raw
AVERAGED_SCANS=9
SOURCE_INTRODUCTION=direct injection
COMPUTED_SPECTRAL_ENTROPY=3.3150704739700556
COMPUTED_NORMALIZED_ENTROPY=0.6250952059973708
COMPUTED_MASS_ACCURACY=0.07302326350102037
COMPUTED_MASS_ERROR=-1.4395335909966889E-5
MONA_RATING=4.615384615384616
NUM_PEAKS=271
COMPOUND_NAME=GUAIAZULENE
SPECTRUM_ID=VF-NPL-QEHF028249
ADDUCT=[M-H]-
MS_LEVEL=MS2
PRECURSOR_MZ=197.1335601806641
IONMODE=negative
NOMINAL_MASS=198
PARENT_MASS=198.140850576
SMILES=Cc1ccc(C(C)C)cc2c(C)ccc1-2
57.033173 0.00909263
59.012421 0.07989155
61.986915 0.46886423
69.033176 0.00444338
71.01241 0.0040935
71.048773 0.01125639
79.955984 0.02787994
80.963753 0.00619054
81.033252 0.0040421400000000005
83.012377 0.0031109799999999997
83.04879 0.011174429999999999
85.028122 0.0141019
85.064423 0.00577075
87.00736 0.00877918
87.043603 0.00281609
89.023041 0.0021043
93.033163 0.0064465799999999995
94.979492 0.00388434
95.012413 0.00313303
95.04883 0.0133751
96.958643 0.01422282
97.028106 0.012755099999999998
97.999558 0.00859504
99.924388 0.02304357
101.059345 0.01333062
103.918816 0.01516127
106.917167 0.03865755
109.028134 0.01601082
109.064491 0.031188229999999997
110.956704 0.10758848
110.974415 0.09339826000000001
110.985486 0.00560775
111.007422 0.01526961
111.043698 0.01168414
111.080119 0.03185883
112.952471 0.00237645
113.02293 0.007328329999999999
113.059303 0.00263841
114.054768 0.00476081
115.038767 0.07437359
115.07515 0.05629778
115.919318 0.02140107
116.070386 0.01233941
117.05437 0.01163525
123.043936 0.00595295
125.02305 0.0069667
125.059466 0.01058793
125.095801 0.030385040000000002
125.891136 0.01768856
127.038709 0.01507498
127.075254 0.00210659
128.033957 0.023151190000000002
129.054425 0.00377429
133.06454 0.03771655
134.096238 0.00416622
135.044001 0.01829889
135.08035 0.0055476300000000004
137.023069 0.013022750000000001
137.059573 0.00860873
137.095916 0.00865733
139.038833 0.01066678
139.074866 0.00234302
150.922793 0.00816678
150.987629 0.03381449
151.038855 0.0022899
151.075244 0.00911301
151.906583 0.0022450300000000003
152.884384 0.03567669
152.910194 0.00397828
153.054566 0.01039467
153.090872 0.052212579999999995
153.12724 0.01374827
153.922108 0.0325538
154.025906 0.0038806400000000003
154.882185 0.00844756
154.914185 0.0033369700000000003
155.070218 0.010402100000000001
155.08146 0.0030291600000000004
155.106698 0.010043930000000001
156.893652 0.21601752000000002
156.96109 0.00460794
160.840764 0.00476943
165.003329 0.10701071000000001
165.018446 0.00381541
166.00296 0.00297288
166.982675 0.02226899
167.000769 0.0031684
167.070359 0.010559510000000001
167.142982 0.047669449999999995
168.073576 0.00239771
168.146252 0.00789856
168.998345 0.00511235
179.070361 0.031096750000000003
179.106827 0.01964668
180.041983 0.00722375
181.000045 0.022877710000000002
181.045065 0.008674340000000001
184.000872 0.00790806
184.088402 0.00591981
195.065418 0.00955877
195.138222 0.79716765
196.069085 0.01729133
196.14161 0.27013339
196.874492 0.00535612
197.027267 0.54570821
197.044034 0.00842431
197.080951 0.04644546
197.096224 0.01993317
197.117496 0.07231868999999999
197.132639 0.03365265
197.144117 0.01475838
197.153676 0.08429666
197.901862 0.0053922499999999995
198.030601 0.0476619
198.058406 0.04482421
198.157482 0.0035397600000000003
198.9047 0.0365015
199.006245 0.09431089999999999
199.023717 0.029582220000000003
199.042438 0.00942668
199.060861 0.00764474
199.07538 0.02611252
199.096617 0.03499755
199.111924 0.35686242
199.133183 0.14316846
199.169442 1.0
218.27455 0.01739264
218.283131 0.01019077
END IONS

BEGIN IONS
CHARGE=1+
INCHIKEY=FWKQNCXZGNBPFD-UHFFFAOYSA-N
INSTRUMENT_TYPE=ESI-QFT
INSTRUMENT=Thermo Q Exactive HF
COLLISION_ENERGY=65HCD
FORMULA=C15H18
INCHI=InChI=1S/C15H18/c1-10(2)13-7-5-11(3)14-8-6-12(4)15(14)9-13/h5-10H,1-4H3
AUTHOR=Arpana Vaniya
SPLASH=splash10-05o0-2900000000-2afbbf9eb8227b59a243
SUBMITTER=submitter = Arpana Vaniya (University of California, Davis)
SYNON_$=00in-source
COMPUTED_SMILES=C=1C=C(C2=CC=C(C2=CC1C(C)C)C)C
COMPUTED_[2M+H-H2O]+=379.274331152
COMPUTED_[2M+K]+=435.380001152
COMPUTED_[M+H]+=199.148820576
COMPUTED_[2M+NA]+=419.271471152
COMPUTED_[2M+CL]-=431.73470115199996
COMPUTED_[2M+HAC-H]-=455.325731152
COMPUTED_[M-H20-H]-=179.12246057599998
COMPUTED_[M-H]-=197.133574576
COMPUTED_[2M-H]-=395.274425152
COMPUTED_[M+NA]+=221.13062057599998
COMPUTED_[M+H-H2O]+=181.13348057599998
COMPUTED_[2M+NH4]+=414.320281152
COMPUTED_[M+CL]-=233.593850576
COMPUTED_[M+NH4]+=216.179430576
COMPUTED_[M+K]+=237.239150576
COMPUTED_[2M+H]+=397.289671152
COMPUTED_[M+HAC-H]-=257.184880576
RAW_FILENAME=NP_UC_2800_p10_H11_2.raw
AVERAGED_SCANS=15
SOURCE_INTRODUCTION=direct injection
COMPUTED_SPECTRAL_ENTROPY=4.055903989473894
COMPUTED_NORMALIZED_ENTROPY=0.7157780754461632
COMPUTED_MASS_ACCURACY=3.5325996583377015
COMPUTED_MASS_ERROR=-7.035105703039335E-4
MONA_RATING=4.583333333333334
NUM_PEAKS=409
COMPOUND_NAME=GUAIAZULENE
SPECTRUM_ID=VF-NPL-QEHF028248
ADDUCT=[M+H]+
MS_LEVEL=MS2
PRECURSOR_MZ=199.1481170654297
IONMODE=positive
NOMINAL_MASS=198
PARENT_MASS=198.140850576
SMILES=Cc1ccc(C(C)C)cc2c(C)ccc1-2
55.018132 0.01815528
55.054519 0.18057331999999998
56.057865 0.0075695400000000005
56.965059 0.02708034
57.070141 0.09169523
57.935056 0.09726523999999999
58.932882 0.02677016
59.930475 0.07694184
60.930725 0.02279979
61.010849 0.13306498
61.928004 0.07500294
62.018667 0.032369669999999996
62.92921 0.01055109
62.990067 0.008300499999999999
63.006633 0.0176647
63.928857 0.008354770000000001
67.054348 0.04729119
69.069968 0.12134902
70.065178 0.02075107
70.073275 0.00664967
71.085613 0.023216030000000002
72.044409 0.00761246
72.080797 0.00913038
72.937142 0.00733913
73.956166 0.02602289
75.935402 0.0068775
75.945376 0.01055636
77.940836 0.020523250000000003
78.952093 0.025863610000000002
79.021218 0.06942332000000001
79.054234 0.03500984
79.938368 0.026369240000000002
81.069899 0.0549429
82.065053 0.00640193
83.04912 0.00573824
83.085539 0.07666714
86.060034 0.022265760000000002
90.94777 0.00628233
91.054244 0.05013612
91.912539 0.01476148
93.06993 0.0264723
93.955986 0.012717069999999999
95.085548 0.04132239
95.951358 0.02147793
96.080666 0.0076615699999999995
96.088836 0.00719234
97.06479 0.013102860000000001
97.101251 0.03198785
97.94893 0.026975410000000002
98.975378 0.01371148
100.075727 0.01560929
105.069948 0.01914474
107.085499 0.009385339999999999
115.054267 0.02119938
116.062071 0.00629592
116.985876 0.00988101
123.938848 0.00661343
124.936394 0.00672539
126.933703 0.02544221
128.061941 0.04473586
129.069829 0.0653143
131.085564 0.07500184
132.9582 0.00585549
134.919733 0.00900506
137.927931 0.03357958
138.935883 0.01339123
138.951678 0.00659211
139.923477 0.020033850000000002
140.923461 0.00620787
140.952198 0.0060704999999999995
141.069793 0.10816025
141.920867 0.03902626
142.077772 0.31355207
143.080833 0.02144096
143.086052 0.08574596
143.439279 0.03679797
148.971909 0.01105607
150.951117 0.02276834
150.968748 0.005653780000000001
151.44694 0.00645161
152.062024 0.02292389
152.444463 0.07099340999999999
153.069814 0.25210187
153.959281 0.05418363
153.966809 0.023255059999999998
154.072626 0.01728798
154.0783 0.026050919999999998
154.964386 0.01420616
155.085438 0.44436045999999996
155.9547 0.04092395
156.08862 0.04577538
156.094141 0.024277359999999998
156.945943 0.025436689999999998
156.954848 0.03392213
156.962292 0.0173691
157.101236 0.09081429999999999
157.951995 0.1327585
158.07263 0.029962330000000002
158.942033 0.00920161
158.953562 0.01085883
158.962548 0.014844900000000001
159.080516 0.034012730000000005
159.951587 0.01265131
160.938991 0.0107052
165.069961 0.024104570000000002
166.07787 0.01741304
167.085483 0.32587837000000003
168.093775 0.53314742
169.064767 0.00958555
169.096143 0.06710880000000001
171.080397 0.15306702
180.88821 0.00856988
181.101103 0.07642327
182.109458 0.13300338
183.116956 1.0
184.120237 0.16297142
185.096119 0.060119870000000006
185.949169 0.00921966
186.103898 0.26781427999999996
187.944721 0.00646446
188.94358 0.016769739999999998
189.941722 0.03430488
197.132389 0.08653860999999999
197.173124 0.01963997
198.136045 0.02842888
198.185266 0.13054103
199.188641 0.014955719999999999
201.127333 0.08090935999999999
END IONS

BEGIN IONS
CHARGE=1+
INCHIKEY=FWKQNCXZGNBPFD-UHFFFAOYSA-N
INSTRUMENT_TYPE=ESI-QFT
INSTRUMENT=Thermo Q Exactive HF
COLLISION_ENERGY=45HCD
FORMULA=C15H18
INCHI=InChI=1S/C15H18/c1-10(2)13-7-5-11(3)14-8-6-12(4)15(14)9-13/h5-10H,1-4H3
AUTHOR=Arpana Vaniya
SPLASH=splash10-001j-1900000000-339a4ebf8c047d93708f
SUBMITTER=submitter = Arpana Vaniya (University of California, Davis)
SYNON_$=00in-source
COMPUTED_SMILES=C=1C=C(C2=CC=C(C2=CC1C(C)C)C)C
COMPUTED_[2M+H-H2O]+=379.274331152
COMPUTED_[2M+K]+=435.380001152
COMPUTED_[M+H]+=199.148820576
COMPUTED_[2M+NA]+=419.271471152
COMPUTED_[2M+CL]-=431.73470115199996
COMPUTED_[2M+HAC-H]-=455.325731152
COMPUTED_[M-H20-H]-=179.12246057599998
COMPUTED_[M-H]-=197.133574576
COMPUTED_[2M-H]-=395.274425152
COMPUTED_[M+NA]+=221.13062057599998
COMPUTED_[M+H-H2O]+=181.13348057599998
COMPUTED_[2M+NH4]+=414.320281152
COMPUTED_[M+CL]-=233.593850576
COMPUTED_[M+NH4]+=216.179430576
COMPUTED_[M+K]+=237.239150576
COMPUTED_[2M+H]+=397.289671152
COMPUTED_[M+HAC-H]-=257.184880576
RAW_FILENAME=NP_UC_2800_p10_H11_2.raw
AVERAGED_SCANS=15
SOURCE_INTRODUCTION=direct injection
COMPUTED_SPECTRAL_ENTROPY=3.423175438339544
COMPUTED_NORMALIZED_ENTROPY=0.5950686159503016
COMPUTED_MASS_ACCURACY=3.5325996583377015
COMPUTED_MASS_ERROR=-7.035105703039335E-4
MONA_RATING=4.583333333333334
NUM_PEAKS=426
COMPOUND_NAME=GUAIAZULENE
SPECTRUM_ID=VF-NPL-QEHF028247
ADDUCT=[M+H]+
MS_LEVEL=MS2
PRECURSOR_MZ=199.1481170654297
IONMODE=positive
NOMINAL_MASS=198
PARENT_MASS=198.140850576
SMILES=Cc1ccc(C(C)C)cc2c(C)ccc1-2
55.054561 0.0269149
56.96508 0.0028809400000000002
57.07019 0.025215480000000002
57.93513 0.00967286
59.930546 0.00250666
61.010868 0.1091737
62.014186 0.00308189
62.018745 0.00377612
63.006644 0.021869459999999997
67.054359 0.010547550000000001
69.069958 0.03190933
70.065309 0.0016490699999999999
71.085614 0.011855389999999999
72.080786 0.0017976900000000002
73.956204 0.0022119
74.096459 0.0035764800000000004
78.013428 0.0025269000000000003
78.952048 0.0036020600000000002
79.021226 0.046566010000000005
79.054224 0.00504649
79.938489 0.0018081800000000002
81.069887 0.02413279
83.085522 0.03726376
85.064863 0.0019875599999999998
86.060079 0.00821179
91.054335 0.0036889
91.912542 0.00343121
93.069894 0.00570381
95.085545 0.02371474
95.951413 0.00211118
97.064829 0.00805122
97.101212 0.02051796
97.948994 0.00237448
98.975305 0.010331570000000002
100.075673 0.0114876
105.069898 0.00184422
107.085564 0.00811105
109.101218 0.00206109
111.08036 0.00405233
114.091309 0.0036042
116.985889 0.005667
121.101202 0.00543107
123.938788 0.008447320000000001
124.936473 0.00480276
125.936276 0.00353939
126.933817 0.02214474
128.062148 0.00176512
129.06987 0.011329750000000001
131.085552 0.04225113999999999
134.919785 0.0071442300000000005
136.920284 0.00802516
137.927983 0.0157887
137.954299 0.001656
139.923517 0.00425595
139.959641 0.00165081
141.069984 0.01301397
141.920846 0.005182409999999999
142.077819 0.05921465000000001
143.085856 0.013992150000000002
143.439346 0.0025899699999999996
144.997358 0.00198989
145.101183 0.00555501
148.971936 0.00298674
149.953475 0.00991886
150.95106 0.07374798
152.081829 0.0090205
152.444678 0.00895205
153.063524 0.00494575
153.069913 0.00559586
153.959286 0.08402148999999999
153.966241 0.01761042
154.94694 0.0025902599999999996
154.964291 0.0074262700000000004
155.085467 0.09595961000000001
155.947762 0.006408239999999999
155.954694 0.04147678
155.964976 0.0038418400000000004
156.088211 0.00743336
156.093811 0.01240816
156.944534 0.02914062
156.954465 0.02027339
156.965361 0.00561897
157.101203 0.17806011000000002
157.952028 0.08791705999999999
158.07265 0.0064429000000000005
158.104262 0.02228007
158.943894 0.00213143
158.95336 0.01443343
158.960725 0.00254999
159.080373 0.04208126
159.956899 0.039329489999999995
167.085547 0.03423235
168.093766 0.046153009999999994
169.101338 0.00442527
171.080352 0.00918812
171.11686 0.0025484400000000003
171.976837 0.00178464
172.975366 0.00598597
173.096086 0.00931671
173.132596 0.015729709999999997
174.954759 0.012338469999999999
181.101062 0.00667826
182.109021 0.06953976
183.116916 1.0
184.088327 0.00448113
184.12019 0.15792323
185.096041 0.00827667
185.123483 0.00954701
185.949035 0.01961064
186.103888 0.10631667
187.944577 0.00848406
188.943375 0.01026779
189.941536 0.02256467
192.96163 0.011818200000000001
197.132463 0.22599566
197.172949 0.05918024
198.140592 0.19763065999999999
198.185115 0.5158218999999999
199.111844 0.02563913
199.144016 0.02957498
199.188571 0.06920882
200.191638 0.00205234
200.200931 0.00401793
200.237247 0.00840874
201.110024 0.00218344
201.127321 0.27079688999999996
210.972066 0.005769450000000001
218.455585 0.00736854
END IONS

BEGIN IONS
CHARGE=1+
INCHIKEY=FWKQNCXZGNBPFD-UHFFFAOYSA-N
INSTRUMENT_TYPE=ESI-QFT
INSTRUMENT=Thermo Q Exactive HF
COLLISION_ENERGY=35HCD
FORMULA=C15H18
INCHI=InChI=1S/C15H18/c1-10(2)13-7-5-11(3)14-8-6-12(4)15(14)9-13/h5-10H,1-4H3
AUTHOR=Arpana Vaniya
SPLASH=splash10-0002-0910000000-f3dd79f6fee10373c122
SUBMITTER=submitter = Arpana Vaniya (University of California, Davis)
SYNON_$=00in-source
COMPUTED_SMILES=C=1C=C(C2=CC=C(C2=CC1C(C)C)C)C
COMPUTED_[2M+H-H2O]+=379.274331152
COMPUTED_[2M+K]+=435.380001152
COMPUTED_[M+H]+=199.148820576
COMPUTED_[2M+NA]+=419.271471152
COMPUTED_[2M+CL]-=431.73470115199996
COMPUTED_[2M+HAC-H]-=455.325731152
COMPUTED_[M-H20-H]-=179.12246057599998
COMPUTED_[M-H]-=197.133574576
COMPUTED_[2M-H]-=395.274425152
COMPUTED_[M+NA]+=221.13062057599998
COMPUTED_[M+H-H2O]+=181.13348057599998
COMPUTED_[2M+NH4]+=414.320281152
COMPUTED_[M+CL]-=233.593850576
COMPUTED_[M+NH4]+=216.179430576
COMPUTED_[M+K]+=237.239150576
COMPUTED_[2M+H]+=397.289671152
COMPUTED_[M+HAC-H]-=257.184880576
RAW_FILENAME=NP_UC_2800_p10_H11_2.raw
AVERAGED_SCANS=15
SOURCE_INTRODUCTION=direct injection
COMPUTED_SPECTRAL_ENTROPY=3.1871129597673082
COMPUTED_NORMALIZED_ENTROPY=0.5600899179304826
COMPUTED_MASS_ACCURACY=3.5325996583377015
COMPUTED_MASS_ERROR=-7.035105703039335E-4
MONA_RATING=4.583333333333334
NUM_PEAKS=427
COMPOUND_NAME=GUAIAZULENE
SPECTRUM_ID=VF-NPL-QEHF028246
ADDUCT=[M+H]+
MS_LEVEL=MS2
PRECURSOR_MZ=199.1481170654297
IONMODE=positive
NOMINAL_MASS=198
PARENT_MASS=198.140850576
SMILES=Cc1ccc(C(C)C)cc2c(C)ccc1-2
55.054655 0.00771023
57.070168 0.01304368
61.010862 0.20569514000000003
62.014216 0.01138158
63.006628 0.04654885
67.054419 0.00943519
69.069976 0.016136209999999998
71.085628 0.007157
74.096491 0.0068530100000000005
78.013492 0.005323059999999999
79.021225 0.062047540000000005
81.069902 0.02169236
83.085519 0.02074562
85.064915 0.00542199
86.060162 0.004113
93.069977 0.00433473
95.085546 0.02006649
97.064889 0.006780779999999999
97.101237 0.012353629999999999
98.975354 0.00961057
100.075727 0.00980468
107.085603 0.006871810000000001
114.09142 0.00479861
116.986007 0.0067839499999999995
121.101241 0.00531914
123.938768 0.01069293
124.936512 0.007691679999999999
125.936157 0.0053865
126.933853 0.026749900000000004
129.069896 0.00361443
131.085572 0.028413710000000002
134.919762 0.00643119
135.116794 0.00515007
136.92017 0.01174824
137.928037 0.01023787
137.954475 0.0084613
138.05257 0.01210577
139.959667 0.00348105
140.949363 0.00421736
141.070028 0.00369342
142.077799 0.02096075
143.085735 0.00864156
145.101145 0.006461489999999999
147.116824 0.00348051
149.95345 0.01024626
150.951064 0.07567389000000001
151.943671 0.00430422
151.97012 0.0041365
152.081925 0.01117597
153.063423 0.019380059999999998
153.959295 0.14345534000000001
153.96612 0.02946865
154.946868 0.01046089
154.964157 0.013709009999999999
155.079197 0.00334585
155.085382 0.06509242
155.947302 0.01377548
155.95473 0.05612871
155.964986 0.009383899999999999
156.093746 0.00975768
156.944337 0.05335901
156.954441 0.017719620000000002
156.966461 0.015710500000000002
157.101118 0.26781463
157.952036 0.07439385
158.104402 0.03203979
158.944215 0.00600466
158.953498 0.0230163
158.959572 0.0033454
159.080375 0.055202600000000004
159.956821 0.044458609999999996
163.148091 0.0051329999999999995
163.940672 0.006568460000000001
167.085568 0.01241152
168.093367 0.00647742
168.961649 0.00478101
169.101045 0.00741125
171.080411 0.00367364
171.116759 0.00635823
171.965443 0.005593890000000001
171.977177 0.01036067
172.946011 0.01037379
172.975319 0.03020456
173.096051 0.01982728
173.132432 0.027009889999999998
173.957841 0.00553747
174.95462 0.02702693
179.460108 0.00376687
180.457602 0.03762497
181.058197 0.0068189
182.109097 0.03414766
183.116862 0.9141215699999999
184.12017 0.14268465
185.096001 0.0090847
185.123586 0.0078592
185.949009 0.03801763
186.103893 0.04581366
186.954837 0.00486963
187.944649 0.016118
188.943553 0.008918500000000001
189.462849 0.00906847
189.941603 0.0204086
192.961516 0.0152319
194.940823 0.00346022
197.132453 0.43480905999999997
197.173018 0.12331036
198.085865 0.02052918
198.140521 0.80602046
198.185143 1.0
198.954428 0.00681369
199.094601 0.00424366
199.111696 0.06880845
199.144938 0.11859549
199.188543 0.13304146
200.115327 0.00864246
200.151343 0.014978229999999999
200.191424 0.00637672
200.200771 0.01274712
200.237117 0.0380982
200.955762 0.00651408
201.091225 0.0096446
201.109744 0.025666190000000002
201.127265 0.56394545
210.972072 0.010156080000000001
215.967577 0.00680153
216.965081 0.01637363
218.461377 0.00344367
218.966141 0.00700207
END IONS

BEGIN IONS
CHARGE=1+
INCHIKEY=PQHZSWZPVGHDEZ-UIQTUGNFSA-N
INSTRUMENT_TYPE=ESI-QFT
INSTRUMENT=Thermo Q Exactive HF
COLLISION_ENERGY=65HCD
FORMULA=C21H43N5O11S
INCHI=InChI=1S/C21H41N5O7.H2O4S/c1-4-26-13-7-12(24)16(32-19-11(23)6-5-10(8-22)31-19)14(27)17(13)33-20-15(28)18(25-3)21(2,29)9-30-20;1-5(2,3)4/h5,11-20,25-29H,4,6-9,22-24H2,1-3H3;(H2,1,2,3,4)/t11-,12+,13-,14+,15-,16-,17+,18-,19-,20-,21+;/m1./s1
AUTHOR=Arpana Vaniya
SPLASH=splash10-0536-9231000000-65fd3a5d9490ea887fb7
SUBMITTER=submitter = Arpana Vaniya (University of California, Davis)
SYNON_$=00in-source
COMPUTED_SMILES=O=S(=O)(O)OOC1C(OCC(O)(C)C1NC)OC2C(O)C(OC3OC(=CCC3N)CN)C(N)CC2NCC
COMPUTED_[2M+H-H2O]+=1129.528586392
COMPUTED_[2M+K]+=1185.6342563920002
COMPUTED_[M+H]+=574.2759481960001
COMPUTED_[2M+NA]+=1169.525726392
COMPUTED_[2M+CL]-=1181.988956392
COMPUTED_[2M+HAC-H]-=1205.5799863920001
COMPUTED_[M-H20-H]-=554.2495881960001
COMPUTED_[M-H]-=572.260702196
COMPUTED_[2M-H]-=1145.528680392
COMPUTED_[M+NA]+=596.2577481960001
COMPUTED_[M+H-H2O]+=556.260608196
COMPUTED_[2M+NH4]+=1164.574536392
COMPUTED_[M+CL]-=608.720978196
COMPUTED_[M+NH4]+=591.3065581960001
COMPUTED_[M+K]+=612.366278196
COMPUTED_[2M+H]+=1147.543926392
COMPUTED_[M+HAC-H]-=632.3120081960001
RAW_FILENAME=NP_UC_2789_p10_E10_8.raw
AVERAGED_SCANS=12
SOURCE_INTRODUCTION=direct injection
COMPUTED_SPECTRAL_ENTROPY=4.001439547645088
COMPUTED_NORMALIZED_ENTROPY=0.7003196830952207
COMPUTED_MASS_ACCURACY=8.118331184810893
COMPUTED_MASS_ERROR=-0.004800383500082717
MONA_RATING=4.545454545454546
NUM_PEAKS=339
COMPOUND_NAME=NETILMICIN SULFATE
SPECTRUM_ID=VF-NPL-QEHF028245
ADDUCT=[M+NH4]+
MS_LEVEL=MS2
PRECURSOR_MZ=591.3017578125
IONMODE=positive
NOMINAL_MASS=573
PARENT_MASS=573.2679781960001
SMILES=CCN[C@@H]1C[C@H](N)[C@@H](O[C@H]2OC(CN)=CC[C@H]2N)[C@H](O)[C@H]1O[C@H]1OC[C@](C)(O)[C@H](NC)[C@H]1O.O=S(=O)(O)O
SALT_IONS=
51.940282 0.04509497
55.054522 0.13691127
55.934672 0.029142670000000002
56.965054 0.43984417
57.070151 0.35028385
57.935074 0.10269368
58.932852 0.01796951
59.930488 0.013780220000000001
61.010798 0.10682635
62.018672 0.02594384
62.989769 0.00406676
63.997926 0.036190929999999996
67.054336 0.16020821000000002
69.069958 0.06565433999999999
70.065194 0.02199721
70.957945 0.03509312
71.085573 0.10023832
73.046833 0.21090391
74.096378 0.00789815
75.025999 0.00317234
79.021147 0.24190091
79.054206 0.02514678
81.069873 0.10076462
81.846767 0.0028874300000000003
83.085492 0.022135099999999998
84.06821 0.03845612
84.959568 0.01288077
85.101192 0.01559405
87.044094 0.06845094
88.96839 0.020552459999999998
89.059701 0.01052252
91.054364 0.06325291
91.057358 1.0
92.056977 0.01776819
92.060578 0.00752634
93.036679 0.01211403
93.054093 0.01069777
93.069867 0.02359141
95.04924 0.00527521
95.085507 0.05676147
97.076068 0.09896806
98.975366 0.23072621999999998
105.033454 0.005293099999999999
105.069693 0.00557542
107.085557 0.00337411
109.101148 0.01602223
116.985869 0.34149101000000004
119.001444 0.009689060000000001
123.117249 0.0029341299999999996
131.000306 0.01422137
134.996429 0.41443835999999995
137.011928 0.006479780000000001
143.000749 0.00303456
144.978105 0.0029585899999999997
146.974327 0.00954874
149.011453 0.01278143
149.044834 0.00782781
153.006832 0.03804117
153.959496 0.0070475600000000005
155.961376 0.012082619999999999
159.032987 0.0032619999999999997
162.986728 0.005794120000000001
163.028024 0.00781688
167.0552 0.15042914
168.983965 0.012383660000000001
170.011254 0.00584021
174.005964 0.02914502
175.003858 0.01035134
176.000713 0.00608389
189.019707 0.00427631
190.953422 0.007157019999999999
194.99942 0.0061849
197.875408 0.009392939999999999
206.084175 0.00949245
219.869041 0.02941365
219.884974 0.00698098
219.894345 0.0032534200000000004
222.898542 0.1940406
224.992285 0.0052702800000000005
225.04297 0.07863890999999999
227.02214 0.03189869
227.935225 0.01060946
232.964185 0.0095155
239.88624 0.00936902
240.90907 0.31319145
241.910311 0.00875096
242.909416 0.00770952
243.002856 0.00330208
246.13724 0.0054551899999999995
247.906044 0.00498673
257.896596 0.02593068
260.894666 0.0029412300000000004
263.900184 0.00301765
264.909868 0.00304383
266.998791 0.04149483
268.978332 0.05720252000000001
274.974126 0.00564683
281.295067 0.37107261999999996
281.895941 0.00534861
281.911863 0.08294326999999999
282.137232 0.03512743
282.27898 0.11162794
282.297669 0.05345003
283.030228 0.01596585
284.153102 0.035670139999999996
286.949062 0.00293296
299.011111 0.00617995
302.164086 0.00635626
309.326113 0.37450521999999997
310.310028 0.0936731
310.329645 0.06423844
311.312841 0.005659269999999999
312.838295 0.00431759
317.021538 0.00338105
319.836094 0.02363782
336.839682 0.020991209999999996
337.845695 0.011766490000000001
342.997236 0.017413019999999998
344.828478 0.0032991599999999998
344.976174 0.04752096
349.07121 0.00377826
354.848208 0.00458364
360.838704 0.04407428
369.836252 0.032869169999999996
387.847766 0.00551079
402.96347 0.020524550000000003
455.324638 0.00310367
571.73116 0.00293867
END IONS

BEGIN IONS
CHARGE=1+
INCHIKEY=PQHZSWZPVGHDEZ-UIQTUGNFSA-N
INSTRUMENT_TYPE=ESI-QFT
INSTRUMENT=Thermo Q Exactive HF
COLLISION_ENERGY=45HCD
FORMULA=C21H43N5O11S
INCHI=InChI=1S/C21H41N5O7.H2O4S/c1-4-26-13-7-12(24)16(32-19-11(23)6-5-10(8-22)31-19)14(27)17(13)33-20-15(28)18(25-3)21(2,29)9-30-20;1-5(2,3)4/h5,11-20,25-29H,4,6-9,22-24H2,1-3H3;(H2,1,2,3,4)/t11-,12+,13-,14+,15-,16-,17+,18-,19-,20-,21+;/m1./s1
AUTHOR=Arpana Vaniya
SPLASH=splash10-06s6-8396040000-e5bd9dce06430f705064
SUBMITTER=submitter = Arpana Vaniya (University of California, Davis)
SYNON_$=00in-source
COMPUTED_SMILES=O=S(=O)(O)OOC1C(OCC(O)(C)C1NC)OC2C(O)C(OC3OC(=CCC3N)CN)C(N)CC2NCC
COMPUTED_[2M+H-H2O]+=1129.5285863919999
COMPUTED_[2M+K]+=1185.634256392
COMPUTED_[M+H]+=574.275948196
COMPUTED_[2M+NA]+=1169.5257263919998
COMPUTED_[2M+CL]-=1181.9889563919999
COMPUTED_[2M+HAC-H]-=1205.579986392
COMPUTED_[M-H20-H]-=554.249588196
COMPUTED_[M-H]-=572.2607021959999
COMPUTED_[2M-H]-=1145.5286803919998
COMPUTED_[M+NA]+=596.257748196
COMPUTED_[M+H-H2O]+=556.2606081959999
COMPUTED_[2M+NH4]+=1164.5745363919998
COMPUTED_[M+CL]-=608.7209781959999
COMPUTED_[M+NH4]+=591.306558196
COMPUTED_[M+K]+=612.3662781959999
COMPUTED_[2M+H]+=1147.5439263919998
COMPUTED_[M+HAC-H]-=632.312008196
RAW_FILENAME=NP_UC_2789_p10_E10_8.raw
AVERAGED_SCANS=12
SOURCE_INTRODUCTION=direct injection
COMPUTED_SPECTRAL_ENTROPY=4.02232624606847
COMPUTED_NORMALIZED_ENTROPY=0.6999972177611709
COMPUTED_MASS_ACCURACY=8.118331184618627
COMPUTED_MASS_ERROR=-0.00480038349996903
MONA_RATING=4.545454545454546
NUM_PEAKS=351
COMPOUND_NAME=NETILMICIN SULFATE
SPECTRUM_ID=VF-NPL-QEHF028244
ADDUCT=[M+NH4]+
MS_LEVEL=MS2
PRECURSOR_MZ=591.3017578125
IONMODE=positive
NOMINAL_MASS=573
PARENT_MASS=573.267978196
SMILES=CCN[C@@H]1C[C@H](N)[C@@H](O[C@H]2OC(CN)=CC[C@H]2N)[C@H](O)[C@H]1O[C@H]1OC[C@](C)(O)[C@H](NC)[C@H]1O.O=S(=O)(O)O
SALT_IONS=
55.054537 0.05857516
56.965084 0.0189969
57.07016 0.28234864000000004
61.010851 0.05992775
62.018648 0.01815466
63.997925 0.014648620000000001
67.054339 0.12100192
69.070004 0.04810073
70.06514 0.01108031
71.085592 0.1183966
73.046823 0.22598912
74.096451 0.03191339
79.021193 0.34824398
79.054108 0.00614473
81.069882 0.07111152999999999
83.085494 0.05336878
85.101172 0.03087816
87.044107 0.20133980999999998
89.059705 0.14587859
91.054186 0.03853133
91.057361 1.0
91.060506 0.00987767
92.057026 0.0134955
92.0607 0.010788850000000001
93.036715 0.00657849
93.069886 0.016181920000000002
95.085493 0.08880064000000001
97.101215 0.04688473
98.975382 0.10034567
107.085474 0.01690946
109.101204 0.09320287000000001
116.98591 0.14826055999999999
121.06469 0.03506197
121.101254 0.00514339
125.096132 0.01451314
132.986916 0.008897239999999999
134.996402 0.15478707
147.116873 0.0248219
149.044883 0.03718189
153.006998 0.009562659999999999
158.0118 0.00520066
162.987246 0.01047431
163.028097 0.00669431
167.05526 0.2520598
168.055337 0.005122440000000001
174.006115 0.03160016
175.0037 0.01784197
176.001369 0.0064936
176.021461 0.0069660699999999996
176.989034 0.0762729
188.021542 0.01927655
189.019438 0.014731810000000001
192.961959 0.00578651
194.999837 0.19584256
207.054189 0.01061065
212.743185 0.08871534
212.755148 0.15742113
212.765708 0.04863432
212.768478 0.05262255
219.175002 0.01488292
223.063953 0.01242421
225.043009 0.12600761
237.079185 0.01074286
239.095241 0.01193289
240.909392 0.029951270000000002
249.907052 0.02065167
254.142737 0.008725749999999999
256.964378 0.02357933
263.902304 0.00791041
264.909067 0.03119516
274.974877 0.17850406
275.978854 0.00618403
281.295027 0.7717483300000001
281.896679 0.12956416
281.912039 0.19260224
282.137395 0.0168424
282.279023 0.56032745
282.297958 0.14564195
282.916918 0.0240071
283.263438 0.05195531
283.282168 0.08833737
283.914266 0.010797639999999999
284.153227 0.19314718
285.009599 0.0840537
288.051293 0.007018379999999999
292.985485 0.0747391
298.168259 0.006135580000000001
299.061714 0.07752527
299.907581 0.02081628
300.147967 0.02693788
302.163523 0.07559176
306.919941 0.00689779
309.326229 0.76505179
310.310386 0.5555034400000001
310.329521 0.14164561
311.294648 0.030054949999999997
311.313591 0.10277364
313.20498 0.0065781599999999996
322.914819 0.045613530000000006
335.342844 0.00630054
336.840107 0.00715043
341.235649 0.02668129
342.996132 0.01015644
344.975555 0.01538484
353.842395 0.01031894
358.843704 0.00603662
360.838669 0.27857738
361.841382 0.04763892
362.841472 0.09117222
376.289266 0.00924895
378.849174 0.07739669
379.853034 0.00876185
380.851548 0.013061179999999999
394.299147 0.1165934
402.963671 0.010780920000000001
406.84493 0.00980526
418.993926 0.01616544
419.852366 0.048890779999999995
420.853452 0.00796959
421.857977 0.00448202
455.216974 0.00737506
531.348771 0.006401250000000001
589.428328 0.8807774899999999
590.384917 0.011481300000000002
590.431606 0.51201899
591.436972 0.06722174
591.582717 0.03419844
593.366233 0.08640712
END IONS

BEGIN IONS
CHARGE=1+
INCHIKEY=PQHZSWZPVGHDEZ-UIQTUGNFSA-N
INSTRUMENT_TYPE=ESI-QFT
INSTRUMENT=Thermo Q Exactive HF
COLLISION_ENERGY=35HCD
FORMULA=C21H43N5O11S
INCHI=InChI=1S/C21H41N5O7.H2O4S/c1-4-26-13-7-12(24)16(32-19-11(23)6-5-10(8-22)31-19)14(27)17(13)33-20-15(28)18(25-3)21(2,29)9-30-20;1-5(2,3)4/h5,11-20,25-29H,4,6-9,22-24H2,1-3H3;(H2,1,2,3,4)/t11-,12+,13-,14+,15-,16-,17+,18-,19-,20-,21+;/m1./s1
AUTHOR=Arpana Vaniya
SPLASH=splash10-000f-4143190000-234c61f2714e36290f1b
SUBMITTER=submitter = Arpana Vaniya (University of California, Davis)
SYNON_$=00in-source
COMPUTED_SMILES=O=S(=O)(O)OOC1C(OCC(O)(C)C1NC)OC2C(O)C(OC3OC(=CCC3N)CN)C(N)CC2NCC
COMPUTED_[2M+H-H2O]+=1129.5285863919999
COMPUTED_[2M+K]+=1185.634256392
COMPUTED_[M+H]+=574.275948196
COMPUTED_[2M+NA]+=1169.5257263919998
COMPUTED_[2M+CL]-=1181.9889563919999
COMPUTED_[2M+HAC-H]-=1205.579986392
COMPUTED_[M-H20-H]-=554.249588196
COMPUTED_[M-H]-=572.2607021959999
COMPUTED_[2M-H]-=1145.5286803919998
COMPUTED_[M+NA]+=596.257748196
COMPUTED_[M+H-H2O]+=556.2606081959999
COMPUTED_[2M+NH4]+=1164.5745363919998
COMPUTED_[M+CL]-=608.7209781959999
COMPUTED_[M+NH4]+=591.306558196
COMPUTED_[M+K]+=612.3662781959999
COMPUTED_[2M+H]+=1147.5439263919998
COMPUTED_[M+HAC-H]-=632.312008196
RAW_FILENAME=NP_UC_2789_p10_E10_8.raw
AVERAGED_SCANS=12
SOURCE_INTRODUCTION=direct injection
COMPUTED_SPECTRAL_ENTROPY=4.015448879541368
COMPUTED_NORMALIZED_ENTROPY=0.6777980250774777
COMPUTED_MASS_ACCURACY=8.118331184618627
COMPUTED_MASS_ERROR=-0.00480038349996903
MONA_RATING=4.545454545454546
NUM_PEAKS=413
COMPOUND_NAME=NETILMICIN SULFATE
SPECTRUM_ID=VF-NPL-QEHF028243
ADDUCT=[M+NH4]+
MS_LEVEL=MS2
PRECURSOR_MZ=591.3017578125
IONMODE=positive
NOMINAL_MASS=573
PARENT_MASS=573.267978196
SMILES=CCN[C@@H]1C[C@H](N)[C@@H](O[C@H]2OC(CN)=CC[C@H]2N)[C@H](O)[C@H]1O[C@H]1OC[C@](C)(O)[C@H](NC)[C@H]1O.O=S(=O)(O)O
SALT_IONS=
55.054513 0.00966732
57.070153 0.09445255
61.010797 0.00944133
62.018651 0.00933824
63.997847 0.00570971
67.054316 0.02983487
69.069986 0.01693656
71.085572 0.05313201
73.046823 0.0907282
74.096432 0.03001556
79.021219 0.13609646
81.069877 0.02080026
83.085497 0.02008324
85.10118 0.0244344
87.044065 0.10181087
89.05969 0.10213132
91.05416 0.01062189
91.057366 0.35175517
92.056969 0.009024830000000001
93.05428 0.00541493
93.069904 0.0032911800000000003
95.085489 0.03337443
97.101258 0.01853275
98.975508 0.006580549999999999
104.992334 0.00940674
109.101175 0.0410103
116.98588 0.00635114
121.064767 0.01260674
125.096103 0.010036499999999999
131.070234 0.00537316
133.085898 0.03498432
134.996372 0.01327637
147.116891 0.013440559999999999
149.044896 0.01965688
167.055392 0.0974535
176.989081 0.04739733
188.02184 0.00396394
194.999902 0.11581151
212.736043 0.03267312
212.749428 0.03422898
212.755646 0.028501159999999998
212.768922 0.024888089999999998
219.174185 0.01018807
223.063634 0.01202661
225.043069 0.045682549999999995
227.127746 0.00665514
227.200566 0.00346468
229.075003 0.0037447
237.079479 0.0338057
239.095052 0.03606743
247.206011 0.00731687
249.90697 0.01355729
256.964527 0.01766153
264.909215 0.00393238
266.142734 0.00347453
274.974946 0.08522776
281.295049 0.28912493
281.896663 0.06226173
281.912217 0.0195897
282.137872 0.00558991
282.279234 0.11925118
282.298414 0.05198321
283.263783 0.01396326
283.282331 0.02017129
284.152961 0.0732967
285.009592 0.054617009999999994
292.985523 0.03210239
293.945931 0.00404178
299.061588 0.05210509
299.907482 0.011872100000000002
300.148204 0.015406280000000001
302.163982 0.020141040000000002
303.124289 0.01013611
306.919724 0.009893579999999999
309.279668 0.01173377
309.326272 0.29443964
310.310443 0.13255236
310.329923 0.05589125
311.294951 0.00427347
311.313928 0.023102809999999998
322.914699 0.07020387
323.917451 0.00713908
324.918135 0.005198199999999999
341.236664 0.01429383
344.976546 0.00799054
352.981647 0.023034680000000002
355.070311 0.00380473
360.838863 0.08749601
361.841335 0.01676504
362.841396 0.034088389999999996
376.289445 0.00517113
378.849622 0.02305174
380.8517 0.00878981
381.847822 0.00550428
386.907181 0.05555594
394.299176 0.04228001
394.84537 0.00337223
405.225793 0.0033905000000000003
406.845244 0.00449474
418.995751 0.02064151
419.851971 0.08902711
420.854545 0.02282624
421.855116 0.04949813
426.99983 0.01432388
436.310068 0.023479040000000003
437.862712 0.021139420000000003
439.866553 0.0047002
455.216574 0.01269195
478.866034 0.00495066
559.006351 0.01426585
560.00709 0.0045381399999999995
575.037882 0.02821146
576.0378 0.00623783
577.035838 0.00561172
589.428571 1.0
590.4319 0.53984209
590.598138 0.29061392999999996
591.3292 0.00591491
591.381223 0.05570824
591.436083 0.07957999
591.494871 0.016840010000000002
591.600322 0.12296367
592.373832 0.01797545
592.496779 0.00396279
592.594879 0.023184200000000002
592.957967 0.013808959999999999
593.366982 0.24792826999999998
593.511616 0.04562561
END IONS

BEGIN IONS
CHARGE=1+
INCHIKEY=PQHZSWZPVGHDEZ-UIQTUGNFSA-N
INSTRUMENT_TYPE=ESI-QFT
INSTRUMENT=Thermo Q Exactive HF
COLLISION_ENERGY=65HCD
FORMULA=C21H43N5O11S
INCHI=InChI=1S/C21H41N5O7.H2O4S/c1-4-26-13-7-12(24)16(32-19-11(23)6-5-10(8-22)31-19)14(27)17(13)33-20-15(28)18(25-3)21(2,29)9-30-20;1-5(2,3)4/h5,11-20,25-29H,4,6-9,22-24H2,1-3H3;(H2,1,2,3,4)/t11-,12+,13-,14+,15-,16-,17+,18-,19-,20-,21+;/m1./s1
AUTHOR=Arpana Vaniya
SPLASH=splash10-006x-3092000000-90a828918244ae51d478
SUBMITTER=submitter = Arpana Vaniya (University of California, Davis)
SYNON_$=00in-source
COMPUTED_SMILES=O=S(=O)(O)OOC1C(OCC(O)(C)C1NC)OC2C(O)C(OC3OC(=CCC3N)CN)C(N)CC2NCC
COMPUTED_[2M+H-H2O]+=1129.528586392
COMPUTED_[2M+K]+=1185.6342563920002
COMPUTED_[M+H]+=574.2759481960001
COMPUTED_[2M+NA]+=1169.525726392
COMPUTED_[2M+CL]-=1181.988956392
COMPUTED_[2M+HAC-H]-=1205.5799863920001
COMPUTED_[M-H20-H]-=554.2495881960001
COMPUTED_[M-H]-=572.260702196
COMPUTED_[2M-H]-=1145.528680392
COMPUTED_[M+NA]+=596.2577481960001
COMPUTED_[M+H-H2O]+=556.260608196
COMPUTED_[2M+NH4]+=1164.574536392
COMPUTED_[M+CL]-=608.720978196
COMPUTED_[M+NH4]+=591.3065581960001
COMPUTED_[M+K]+=612.366278196
COMPUTED_[2M+H]+=1147.543926392
COMPUTED_[M+HAC-H]-=632.3120081960001
RAW_FILENAME=NP_UC_2789_p10_E10_6.raw
AVERAGED_SCANS=15
SOURCE_INTRODUCTION=direct injection
COMPUTED_SPECTRAL_ENTROPY=3.968932501747392
COMPUTED_NORMALIZED_ENTROPY=0.6675612648837621
COMPUTED_MASS_ACCURACY=220.73045688451091
COMPUTED_MASS_ERROR=-0.13513805928130296
MONA_RATING=4.545454545454546
NUM_PEAKS=425
COMPOUND_NAME=NETILMICIN SULFATE
SPECTRUM_ID=VF-NPL-QEHF028242
ADDUCT=[M+K]+
MS_LEVEL=MS2
PRECURSOR_MZ=612.2311401367188
IONMODE=positive
NOMINAL_MASS=573
PARENT_MASS=573.2679781960001
SMILES=CCN[C@@H]1C[C@H](N)[C@@H](O[C@H]2OC(CN)=CC[C@H]2N)[C@H](O)[C@H]1O[C@H]1OC[C@](C)(O)[C@H](NC)[C@H]1O.O=S(=O)(O)O
SALT_IONS=
56.965039 0.015798049999999998
57.070118 0.01232073
61.010654 0.05016089
62.98984 0.02076731
67.054315 0.00495363
73.046785 0.58384312
74.046331 0.04365848
74.050122 0.02419513
75.02609 0.01800208
75.043639 0.025314100000000003
79.020981 0.03190204
91.057319 1.0
92.056847 0.0860796
92.060618 0.05417469
93.036633 0.01035623
93.054146 0.05204372
105.073043 0.00646031
132.958189 0.03917434
149.044824 0.06740319
150.968714 0.04065267
167.055351 0.14866058000000001
168.055107 0.01833017
169.034641 0.00405864
169.052275 0.0095931
180.888178 0.0041424899999999995
186.878422 0.00631343
202.892804 0.007754799999999999
204.887958 0.0178377
206.867604 0.00509839
207.87557 0.01723794
209.012046 0.00263299
209.891074 0.00362356
216.888512 0.0054686000000000005
218.907561 0.005923
220.073919 0.006979180000000001
220.903187 0.22328130000000002
222.898444 0.44974805
223.899752 0.01538219
224.877821 0.00396071
225.042838 0.10386395
225.886098 0.029299
226.043059 0.01716506
227.022116 0.0329664
227.039854 0.00535516
228.021766 0.00306625
229.895914 0.16123626000000002
230.897647 0.00484058
233.891278 0.0846069
234.899152 0.27890001999999997
235.899566 0.03724219
236.89841 0.00324391
236.918041 0.0071778200000000006
237.905969 0.02531669
238.9138 0.28153269000000003
239.901206 0.03083203
240.909094 0.59315246
241.91051 0.02011941
246.89872 0.01866809
247.906415 0.10901629
248.878161 0.10846776999999999
249.878871 0.00704774
250.893521 0.00319871
252.909769 0.00651498
258.899028 0.02336221
261.90617 0.055586779999999995
262.913492 0.009384090000000001
263.901072 0.05802314
264.909075 0.24908715
265.911239 0.01611158
266.888759 0.038806639999999996
266.998876 0.09521302000000001
267.998886 0.04415802
268.97848 0.16531668
268.995054 0.01932606
269.978292 0.07967143
270.959438 0.00323295
270.974981 0.044678670000000004
275.901675 0.05357733
276.909747 0.13388851000000002
277.005174 0.00754405
277.909031 0.005450399999999999
278.908531 0.00476895
279.897505 0.020883910000000002
279.916302 0.28229228
280.922686 0.0030461700000000004
281.911739 0.2968004
282.919591 0.16679175000000002
283.030089 0.055801939999999994
283.921005 0.00661594
284.030631 0.024829539999999997
285.009689 0.05272744
285.026169 0.01039024
286.009729 0.024651040000000003
287.00666 0.013040449999999999
288.909021 0.033923640000000005
299.061356 0.012284839999999998
306.919345 0.1470207
307.921713 0.0074940499999999995
309.835496 0.00381492
310.843604 0.01633127
316.832483 0.00322772
317.840771 0.06525759
324.930139 0.0243368
325.829945 0.00442326
326.838353 0.0103119
333.835448 0.03891136
334.843383 0.11418443
335.850935 0.03223385
342.833246 0.01106423
344.976179 0.03603417
345.976751 0.02286469
346.974046 0.012939830000000001
349.849279 0.0038809
351.845958 0.1005399
352.854196 0.01495946
356.847846 0.02115831
358.843422 0.28393124000000003
365.844649 0.00302888
367.841028 0.04827857
369.856811 0.0030487599999999998
374.858039 0.00319535
376.853779 0.08152005000000001
385.852085 0.00517611
388.834225 0.00309676
402.963429 0.04172237
403.963952 0.0476672
404.96142 0.03455883
406.844551 0.038304109999999995
END IONS

BEGIN IONS
CHARGE=1+
INCHIKEY=PQHZSWZPVGHDEZ-UIQTUGNFSA-N
INSTRUMENT_TYPE=ESI-QFT
INSTRUMENT=Thermo Q Exactive HF
COLLISION_ENERGY=45HCD
FORMULA=C21H43N5O11S
INCHI=InChI=1S/C21H41N5O7.H2O4S/c1-4-26-13-7-12(24)16(32-19-11(23)6-5-10(8-22)31-19)14(27)17(13)33-20-15(28)18(25-3)21(2,29)9-30-20;1-5(2,3)4/h5,11-20,25-29H,4,6-9,22-24H2,1-3H3;(H2,1,2,3,4)/t11-,12+,13-,14+,15-,16-,17+,18-,19-,20-,21+;/m1./s1
AUTHOR=Arpana Vaniya
SPLASH=splash10-0aou-5189200000-7818f797d48eede07209
SUBMITTER=submitter = Arpana Vaniya (University of California, Davis)
SYNON_$=00in-source
COMPUTED_SMILES=O=S(=O)(O)OOC1C(OCC(O)(C)C1NC)OC2C(O)C(OC3OC(=CCC3N)CN)C(N)CC2NCC
COMPUTED_[2M+H-H2O]+=1129.5285863919999
COMPUTED_[2M+K]+=1185.634256392
COMPUTED_[M+H]+=574.275948196
COMPUTED_[2M+NA]+=1169.5257263919998
COMPUTED_[2M+CL]-=1181.9889563919999
COMPUTED_[2M+HAC-H]-=1205.579986392
COMPUTED_[M-H20-H]-=554.249588196
COMPUTED_[M-H]-=572.2607021959999
COMPUTED_[2M-H]-=1145.5286803919998
COMPUTED_[M+NA]+=596.257748196
COMPUTED_[M+H-H2O]+=556.2606081959999
COMPUTED_[2M+NH4]+=1164.5745363919998
COMPUTED_[M+CL]-=608.7209781959999
COMPUTED_[M+NH4]+=591.306558196
COMPUTED_[M+K]+=612.3662781959999
COMPUTED_[2M+H]+=1147.5439263919998
COMPUTED_[M+HAC-H]-=632.312008196
RAW_FILENAME=NP_UC_2789_p10_E10_6.raw
AVERAGED_SCANS=15
SOURCE_INTRODUCTION=direct injection
COMPUTED_SPECTRAL_ENTROPY=3.9851870052336764
COMPUTED_NORMALIZED_ENTROPY=0.6729940436174087
COMPUTED_MASS_ACCURACY=220.73045688432524
COMPUTED_MASS_ERROR=-0.13513805928118927
MONA_RATING=4.545454545454546
NUM_PEAKS=400
COMPOUND_NAME=NETILMICIN SULFATE
SPECTRUM_ID=VF-NPL-QEHF028241
ADDUCT=[M+K]+
MS_LEVEL=MS2
PRECURSOR_MZ=612.2311401367188
IONMODE=positive
NOMINAL_MASS=573
PARENT_MASS=573.267978196
SMILES=CCN[C@@H]1C[C@H](N)[C@@H](O[C@H]2OC(CN)=CC[C@H]2N)[C@H](O)[C@H]1O[C@H]1OC[C@](C)(O)[C@H](NC)[C@H]1O.O=S(=O)(O)O
SALT_IONS=
57.070117 0.01084028
61.010625 0.02568985
62.98981 0.00493556
73.04678 0.61749792
74.046319 0.0495231
74.050109 0.026130680000000003
75.026076 0.012847260000000001
75.043628 0.02595374
79.020965 0.011830050000000002
89.059665 0.008779219999999999
91.057318 1.0
92.056819 0.08469528
92.060595 0.052241350000000006
93.036573 0.00983606
93.054139 0.05011399
105.072922 0.00435314
149.044822 0.08422798000000001
150.044187 0.007766530000000001
151.041408 0.00447362
167.055382 0.25473284
168.054745 0.03355914
169.052189 0.0248979
221.084316 0.01717169
222.898383 0.00897135
223.063369 0.006251679999999999
225.042844 0.11174127
226.042955 0.01347494
227.039334 0.00484727
229.896504 0.01573355
234.899067 0.01401286
238.913945 0.004586
239.094766 0.11403957
240.095445 0.03756957
240.909025 0.01665843
241.091744 0.01622643
245.891363 0.00468015
258.898901 0.03676377
261.906146 0.06629208
262.913442 0.01813942
263.90136 0.08495971000000001
264.909129 0.05956904
266.999028 0.02243045
267.998845 0.00501101
268.978345 0.04374491
269.978213 0.01057288
275.901863 0.19012421
276.909844 0.24517554
277.909606 0.029632179999999998
278.908903 0.01504878
279.916503 0.38739679000000005
280.904064 0.012291179999999999
280.922971 0.01025884
281.051183 0.00767749
281.911788 0.55319969
282.91802 0.04507339
283.030444 0.06031066
283.262835 0.00851538
284.030556 0.02060398
285.009601 0.3029758
285.026154 0.01614585
286.009482 0.15327029
286.185761 0.00420645
287.006323 0.09016489
288.006301 0.00501478
288.908874 0.21004525000000002
289.911456 0.01255762
299.061481 0.21070413999999998
300.061701 0.10212375
300.909304 0.13212772
301.058483 0.05500051
301.910383 0.017210970000000003
302.909081 0.0103074
303.020008 0.01172381
304.924053 0.02392056
306.919329 0.89953804
307.921626 0.09176809000000001
308.92259 0.00514056
317.912007 0.01285998
318.920023 0.32737613000000004
319.920911 0.05427173
320.918749 0.25285905
322.914376 0.17230044
323.921807 0.05857967
324.929985 0.17967203
325.931974 0.01194259
334.843394 0.011781779999999999
336.930251 0.048981620000000003
344.976014 0.03806573
345.976238 0.027556409999999996
346.973659 0.01071318
351.845871 0.020064790000000002
356.848048 0.04085919
357.835139 0.00557022
358.84338 0.43190410999999995
365.933071 0.00893354
372.839219 0.0053006600000000004
374.857696 0.00624374
375.845864 0.02140995
376.853778 0.13097173
390.851223 0.01207649
392.848883 0.15263025
400.984309 0.009701999999999999
401.984512 0.00833947
402.9626 0.0072067400000000005
403.963698 0.01554901
404.96116 0.00884826
406.844246 0.04320212
408.860685 0.03426751
409.860619 0.00470649
410.859779 0.03100667
415.182204 0.01059552
415.860683 0.04786983
417.856873 0.40344195
418.994363 0.03698598
419.994604 0.04410818
420.993041 0.02398778
433.192665 0.00987887
433.868803 0.058528830000000004
435.86693 0.13529002
447.847414 0.0566543
448.848517 0.00906154
451.861345 0.00440564
465.857467 0.02342859
474.871301 0.00727761
492.881131 0.04044595
613.338373 0.02585992
613.426792 0.07323022
614.430876 0.00624822
END IONS

BEGIN IONS
CHARGE=1+
INCHIKEY=PQHZSWZPVGHDEZ-UIQTUGNFSA-N
INSTRUMENT_TYPE=ESI-QFT
INSTRUMENT=Thermo Q Exactive HF
COLLISION_ENERGY=35HCD
FORMULA=C21H43N5O11S
INCHI=InChI=1S/C21H41N5O7.H2O4S/c1-4-26-13-7-12(24)16(32-19-11(23)6-5-10(8-22)31-19)14(27)17(13)33-20-15(28)18(25-3)21(2,29)9-30-20;1-5(2,3)4/h5,11-20,25-29H,4,6-9,22-24H2,1-3H3;(H2,1,2,3,4)/t11-,12+,13-,14+,15-,16-,17+,18-,19-,20-,21+;/m1./s1
AUTHOR=Arpana Vaniya
SPLASH=splash10-00dl-3158901000-17d1000fd21896df1821
SUBMITTER=submitter = Arpana Vaniya (University of California, Davis)
SYNON_$=00in-source
COMPUTED_SMILES=O=S(=O)(O)OOC1C(OCC(O)(C)C1NC)OC2C(O)C(OC3OC(=CCC3N)CN)C(N)CC2NCC
COMPUTED_[2M+H-H2O]+=1129.528586392
COMPUTED_[2M+K]+=1185.6342563920002
COMPUTED_[M+H]+=574.2759481960001
COMPUTED_[2M+NA]+=1169.525726392
COMPUTED_[2M+CL]-=1181.988956392
COMPUTED_[2M+HAC-H]-=1205.5799863920001
COMPUTED_[M-H20-H]-=554.2495881960001
COMPUTED_[M-H]-=572.260702196
COMPUTED_[2M-H]-=1145.528680392
COMPUTED_[M+NA]+=596.2577481960001
COMPUTED_[M+H-H2O]+=556.260608196
COMPUTED_[2M+NH4]+=1164.574536392
COMPUTED_[M+CL]-=608.720978196
COMPUTED_[M+NH4]+=591.3065581960001
COMPUTED_[M+K]+=612.366278196
COMPUTED_[2M+H]+=1147.543926392
COMPUTED_[M+HAC-H]-=632.3120081960001
RAW_FILENAME=NP_UC_2789_p10_E10_6.raw
AVERAGED_SCANS=15
SOURCE_INTRODUCTION=direct injection
COMPUTED_SPECTRAL_ENTROPY=4.2110839484094855
COMPUTED_NORMALIZED_ENTROPY=0.6991152298445386
COMPUTED_MASS_ACCURACY=220.73045688451091
COMPUTED_MASS_ERROR=-0.13513805928130296
MONA_RATING=4.545454545454546
NUM_PEAKS=452
COMPOUND_NAME=NETILMICIN SULFATE
SPECTRUM_ID=VF-NPL-QEHF028240
ADDUCT=[M+K]+
MS_LEVEL=MS2
PRECURSOR_MZ=612.2311401367188
IONMODE=positive
NOMINAL_MASS=573
PARENT_MASS=573.2679781960001
SMILES=CCN[C@@H]1C[C@H](N)[C@@H](O[C@H]2OC(CN)=CC[C@H]2N)[C@H](O)[C@H]1O[C@H]1OC[C@](C)(O)[C@H](NC)[C@H]1O.O=S(=O)(O)O
SALT_IONS=
57.070109 0.01326665
61.010601 0.011297759999999999
73.046801 0.69090123
74.046374 0.05593297
74.050052 0.0326788
75.026078 0.01626525
75.043607 0.03152398
79.021073 0.01368181
89.059615 0.03134335
91.057357 1.0
92.056857 0.07819992
92.060606 0.04919237
93.036595 0.008262730000000001
93.054174 0.04974481
149.044809 0.12761534
150.044131 0.01227503
151.041763 0.00811071
167.055283 0.30156998
168.054336 0.04207384
169.052082 0.03294386
195.065159 0.00918586
221.084124 0.07801271
222.085008 0.02536969
223.063383 0.04911069999999999
223.081346 0.010102120000000001
225.042699 0.09808204999999999
226.042909 0.02021471
239.094769 0.32009878
240.095034 0.12756724
241.091004 0.06842023
261.905749 0.02656312
263.900991 0.046235809999999995
264.908681 0.01973849
268.978026 0.03863698
269.9783 0.011854169999999999
275.901519 0.07726315
276.908852 0.02787411
279.916254 0.12406734999999999
281.050852 0.03907691
281.911734 0.20489493
282.051455 0.01457844
282.917445 0.01098498
283.030252 0.00938906
283.262795 0.03353214
285.009347 0.53355652
286.009582 0.28653449999999997
287.006198 0.1609968
288.007266 0.0194919
288.908954 0.18448571000000002
289.911384 0.014031199999999999
299.061485 0.38711719
300.06187 0.18998792
300.90947 0.15581461
301.058434 0.10305795
301.910508 0.02723536
302.059721 0.00940429
302.908684 0.042731649999999996
303.019873 0.025199859999999998
304.02033 0.01070001
304.904096 0.042570069999999995
304.923588 0.01858777
305.911154 0.020784669999999998
306.919572 0.64043892
307.921742 0.06163527
317.91196 0.1593046
318.920199 0.30675911
319.921344 0.05511949000000001
320.918999 0.54238799
322.914491 0.61969565
323.920688 0.08613066
324.930567 0.10478989999999999
336.930587 0.051254549999999996
344.975772 0.06773695
345.976332 0.04801787
346.973963 0.03349256
347.922244 0.14648802
348.92485 0.014115470000000001
355.069605 0.17073335
356.069903 0.14393947
356.848316 0.02597296
357.067124 0.08551819
358.068086 0.01380969
358.843374 0.26039007999999997
359.027967 0.01031385
359.922965 0.00958165
365.932914 0.21132939
366.935011 0.02603132
372.84014 0.013010569999999999
375.846194 0.02240678
376.854017 0.06263987
390.850986 0.01801325
392.849011 0.10780107
400.984463 0.023968060000000003
401.98462 0.03136898
402.982786 0.01712183
408.860856 0.03900355
410.859084 0.019055390000000002
415.859404 0.12988708000000002
416.859806 0.0199276
417.856233 0.92601282
418.994447 0.07105249
419.994948 0.08542357
420.991967 0.0607194
421.992998 0.00926324
431.851488 0.03405492
433.870142 0.13229213
434.859255 0.1130175
435.867006 0.25286075
447.847071 0.14279076999999998
448.848294 0.03310852
451.861091 0.17640156
465.857443 0.0533729
467.872604 0.0176141
474.870869 0.4178129
475.185569 0.01660897
475.872246 0.10127188000000001
476.869965 0.55375627
490.886462 0.01100025
491.887225 0.03502075
492.881062 0.9311450600000001
493.882866 0.2427705
494.88144 0.14058349
611.370205 0.02260599
611.419886 0.04485915
613.342671 0.08818458
613.427802 0.36487843
614.342846 0.01294069
614.431734 0.06934981
END IONS

BEGIN IONS
CHARGE=1+
INCHIKEY=PQHZSWZPVGHDEZ-UIQTUGNFSA-N
INSTRUMENT_TYPE=ESI-QFT
INSTRUMENT=Thermo Q Exactive HF
COLLISION_ENERGY=65HCD
FORMULA=C21H43N5O11S
INCHI=InChI=1S/C21H41N5O7.H2O4S/c1-4-26-13-7-12(24)16(32-19-11(23)6-5-10(8-22)31-19)14(27)17(13)33-20-15(28)18(25-3)21(2,29)9-30-20;1-5(2,3)4/h5,11-20,25-29H,4,6-9,22-24H2,1-3H3;(H2,1,2,3,4)/t11-,12+,13-,14+,15-,16-,17+,18-,19-,20-,21+;/m1./s1
AUTHOR=Arpana Vaniya
SPLASH=splash10-0006-9262000000-647a878842d1331fcc48
SUBMITTER=submitter = Arpana Vaniya (University of California, Davis)
SYNON_$=00in-source
COMPUTED_SMILES=O=S(=O)(O)OOC1C(OCC(O)(C)C1NC)OC2C(O)C(OC3OC(=CCC3N)CN)C(N)CC2NCC
COMPUTED_[2M+H-H2O]+=1129.528586392
COMPUTED_[2M+K]+=1185.6342563920002
COMPUTED_[M+H]+=574.2759481960001
COMPUTED_[2M+NA]+=1169.525726392
COMPUTED_[2M+CL]-=1181.988956392
COMPUTED_[2M+HAC-H]-=1205.5799863920001
COMPUTED_[M-H20-H]-=554.2495881960001
COMPUTED_[M-H]-=572.260702196
COMPUTED_[2M-H]-=1145.528680392
COMPUTED_[M+NA]+=596.2577481960001
COMPUTED_[M+H-H2O]+=556.260608196
COMPUTED_[2M+NH4]+=1164.574536392
COMPUTED_[M+CL]-=608.720978196
COMPUTED_[M+NH4]+=591.3065581960001
COMPUTED_[M+K]+=612.366278196
COMPUTED_[2M+H]+=1147.543926392
COMPUTED_[M+HAC-H]-=632.3120081960001
RAW_FILENAME=NP_UC_2789_p10_E10_4.raw
AVERAGED_SCANS=15
SOURCE_INTRODUCTION=direct injection
COMPUTED_SPECTRAL_ENTROPY=4.179529558933738
COMPUTED_NORMALIZED_ENTROPY=0.7051766026132286
COMPUTED_MASS_ACCURACY=0.9157919780458268
COMPUTED_MASS_ERROR=-5.46047562579588E-4
MONA_RATING=4.615384615384616
NUM_PEAKS=426
COMPOUND_NAME=NETILMICIN SULFATE
SPECTRUM_ID=VF-NPL-QEHF028239
ADDUCT=[M+Na]+
MS_LEVEL=MS2
PRECURSOR_MZ=596.2572021484375
IONMODE=positive
NOMINAL_MASS=573
PARENT_MASS=573.2679781960001
SMILES=CCN[C@@H]1C[C@H](N)[C@@H](O[C@H]2OC(CN)=CC[C@H]2N)[C@H](O)[C@H]1O[C@H]1OC[C@](C)(O)[C@H](NC)[C@H]1O.O=S(=O)(O)O
SALT_IONS=
51.940318 0.01969019
55.054532 0.091835
55.934778 0.00364622
56.049726 0.00666317
56.965041 0.34582892
57.033738 0.0039059700000000004
57.070152 0.16101185999999998
57.935036 0.02467994
58.065331 0.0037691
58.932878 0.00362392
59.93048 0.01128374
61.010791 0.07332087
62.01864 0.01352734
62.981921 0.008720750000000001
62.989912 0.00674836
67.05431 0.12265293
69.069941 0.04137246
70.065187 0.00865279
71.049321 0.00434254
71.085594 0.03607941
73.028423 0.003963400000000001
73.046804 0.20756753
79.021114 0.12359695
79.054219 0.02444278
81.000199 0.0069502900000000005
81.06991 0.06737539
83.010338 0.011046400000000001
83.049295 0.0036768499999999997
83.085509 0.01466428
87.044052 0.05561581
89.059702 0.07235333
90.947978 0.00603723
91.054295 0.03478101
91.057353 1.0
92.056969 0.03892383
92.060613 0.012696989999999998
93.03672 0.01560219
93.054175 0.02111911
93.069856 0.007782590000000001
95.08552 0.042313470000000006
98.975319 0.11208926999999999
101.059693 0.00900671
102.947878 0.00310247
105.033573 0.00363861
105.07329 0.00409609
109.067947 0.00442916
109.101179 0.01906739
111.041599 0.00952451
116.98585 0.16284263
127.036565 0.00539412
131.000298 0.00899753
132.958228 0.00807454
134.996348 0.18397815
146.974238 0.03258201
149.044865 0.02820852
150.968821 0.029442330000000003
153.006886 0.01671286
155.067763 0.012976060000000001
155.961547 0.00619636
167.05535 0.11101997000000001
171.062638 0.010303960000000001
174.005779 0.005252130000000001
180.888021 0.00679223
190.953866 0.02459446
197.011983 0.00452142
208.883545 0.0103326
209.890997 0.00728629
219.871003 0.027644619999999998
219.895501 0.00928064
220.90357 0.0513438
222.898585 0.28121427
225.031313 0.0038724700000000003
225.042838 0.14903313
225.886081 0.01958566
226.042884 0.008084329999999999
227.022063 0.05053144
227.934723 0.00809628
229.074255 0.00607434
229.895838 0.06325784
232.903949 0.00641844
232.964657 0.00929791
233.89129 0.05895482999999999
234.899152 0.15295173
238.913638 0.07040816999999999
240.909009 0.44603059
245.909934 0.0039463
247.906464 0.05848482
248.878606 0.02941852
250.893828 0.02171335
257.895993 0.00688245
259.892131 0.0037185800000000004
262.914518 0.005633320000000001
263.90193 0.0051794
264.909174 0.11871535
266.888904 0.0292094
266.998785 0.0510701
268.978167 0.04258953
270.974911 0.0030849199999999997
275.901946 0.030666890000000002
276.909646 0.05498459000000001
279.89599 0.01855931
279.916107 0.013065789999999999
280.924925 0.00405356
281.911907 0.07198111
282.137198 0.00964696
282.919496 0.0860608
283.029799 0.02422821
284.152798 0.00905929
297.906751 0.00784165
300.147727 0.00686878
305.047401 0.00545103
306.919816 0.05284462
321.836956 0.00496608
322.824232 0.011952069999999999
323.831515 0.05873473
326.965564 0.00392525
341.841632 0.00594031
344.9762 0.38361298
344.998109 0.0029436
345.976485 0.11101471
346.974356 0.06965919000000001
347.830677 0.0045016200000000004
364.834446 0.022989549999999997
365.843179 0.0077827
383.852273 0.058317839999999996
402.963191 0.00711017
404.849707 0.01398047
406.845027 0.07746924
END IONS

BEGIN IONS
CHARGE=1+
INCHIKEY=PQHZSWZPVGHDEZ-UIQTUGNFSA-N
INSTRUMENT_TYPE=ESI-QFT
INSTRUMENT=Thermo Q Exactive HF
COLLISION_ENERGY=45HCD
FORMULA=C21H43N5O11S
INCHI=InChI=1S/C21H41N5O7.H2O4S/c1-4-26-13-7-12(24)16(32-19-11(23)6-5-10(8-22)31-19)14(27)17(13)33-20-15(28)18(25-3)21(2,29)9-30-20;1-5(2,3)4/h5,11-20,25-29H,4,6-9,22-24H2,1-3H3;(H2,1,2,3,4)/t11-,12+,13-,14+,15-,16-,17+,18-,19-,20-,21+;/m1./s1
AUTHOR=Arpana Vaniya
SPLASH=splash10-052f-9263220000-9b477a81262f60763534
SUBMITTER=submitter = Arpana Vaniya (University of California, Davis)
SYNON_$=00in-source
COMPUTED_SMILES=O=S(=O)(O)OOC1C(OCC(O)(C)C1NC)OC2C(O)C(OC3OC(=CCC3N)CN)C(N)CC2NCC
COMPUTED_[2M+H-H2O]+=1129.528586392
COMPUTED_[2M+K]+=1185.6342563920002
COMPUTED_[M+H]+=574.2759481960001
COMPUTED_[2M+NA]+=1169.525726392
COMPUTED_[2M+CL]-=1181.988956392
COMPUTED_[2M+HAC-H]-=1205.5799863920001
COMPUTED_[M-H20-H]-=554.2495881960001
COMPUTED_[M-H]-=572.260702196
COMPUTED_[2M-H]-=1145.528680392
COMPUTED_[M+NA]+=596.2577481960001
COMPUTED_[M+H-H2O]+=556.260608196
COMPUTED_[2M+NH4]+=1164.574536392
COMPUTED_[M+CL]-=608.720978196
COMPUTED_[M+NH4]+=591.3065581960001
COMPUTED_[M+K]+=612.366278196
COMPUTED_[2M+H]+=1147.543926392
COMPUTED_[M+HAC-H]-=632.3120081960001
RAW_FILENAME=NP_UC_2789_p10_E10_4.raw
AVERAGED_SCANS=15
SOURCE_INTRODUCTION=direct injection
COMPUTED_SPECTRAL_ENTROPY=4.332301501043917
COMPUTED_NORMALIZED_ENTROPY=0.7306242298209514
COMPUTED_MASS_ACCURACY=0.9157919780458268
COMPUTED_MASS_ERROR=-5.46047562579588E-4
MONA_RATING=4.615384615384616
NUM_PEAKS=416
COMPOUND_NAME=NETILMICIN SULFATE
SPECTRUM_ID=VF-NPL-QEHF028238
ADDUCT=[M+Na]+
MS_LEVEL=MS2
PRECURSOR_MZ=596.2572021484375
IONMODE=positive
NOMINAL_MASS=573
PARENT_MASS=573.2679781960001
SMILES=CCN[C@@H]1C[C@H](N)[C@@H](O[C@H]2OC(CN)=CC[C@H]2N)[C@H](O)[C@H]1O[C@H]1OC[C@](C)(O)[C@H](NC)[C@H]1O.O=S(=O)(O)O
SALT_IONS=
55.054531 0.0318213
56.965027 0.0121957
57.070127 0.20395576999999998
59.049391 0.01155236
61.01081 0.03896663
62.018629 0.0130341
67.054334 0.10266446
69.069928 0.04967274
70.065196 0.005497060000000001
71.085523 0.10390463999999999
73.046828 0.20510152
79.021127 0.11319908
79.054176 0.01459149
81.069843 0.061232930000000005
83.010256 0.00568836
83.085462 0.0351898
85.101171 0.03142065
87.044031 0.12750604
89.059684 0.35216654
91.054383 0.03157293
91.057384 1.0
92.056947 0.04168775
92.060522 0.01593769
93.036635 0.009292080000000001
93.054151 0.02515394
95.085471 0.07626598999999999
97.10113 0.017404450000000002
98.975292 0.02915689
101.059598 0.07072133
104.106935 0.00707455
107.085299 0.00645451
109.101155 0.0600796
111.04155 0.02875852
116.985752 0.05226269
127.036406 0.04010227
133.085808 0.03130231
134.996293 0.056725859999999996
147.116658 0.00854125
149.044715 0.03625611
155.067679 0.0390715
167.055303 0.25617906
171.062762 0.05774563
174.005945 0.007644410000000001
188.021759 0.007376120000000001
195.065438 0.010891249999999998
199.093922 0.01176559
210.18516 0.055457530000000005
212.719966 0.05118678
212.732792 0.13544002
212.746543 0.11510635000000001
212.759267 0.05142204
215.088848 0.03444946
219.17413 0.01088048
222.899181 0.00954642
223.063604 0.00524977
225.04277 0.20615957999999998
226.042935 0.00974871
229.074592 0.03334692
234.898887 0.00639631
239.094656 0.02026578
240.908847 0.029732690000000003
243.120285 0.01701408
247.085126 0.008166050000000001
259.115071 0.06341880999999999
262.894058 0.0101169
263.901261 0.00935455
264.908975 0.0248033
274.893617 0.00521061
274.974761 0.07236785
275.901607 0.10320681000000001
276.909443 0.11565294
279.916266 0.01652153
281.911744 0.15188117
282.918687 0.01904141
283.030313 0.02721863
283.891905 0.01417632
284.153025 0.10498215999999999
285.009503 0.0656001
285.889366 0.00955392
288.909405 0.03290903
292.903835 0.08927025000000001
292.985426 0.0322512
299.061467 0.14228534
300.148237 0.014665049999999999
300.909814 0.01796824
302.163377 0.03511305
303.141402 0.0393539
304.923976 0.04347825
306.919611 0.31215910999999996
310.914324 0.01715676
313.204394 0.009050510000000001
318.920052 0.09029756000000001
322.914279 0.01093129
324.930067 0.04983238
326.965878 0.00793638
331.172593 0.0098915
341.235524 0.01048733
344.976173 0.272918
345.976003 0.05955683
346.973559 0.028960689999999997
347.167402 0.02396835
360.838749 0.00574802
364.834822 0.0174866
386.839182 0.00896929
388.834114 0.07477576
402.962977 0.010654650000000002
404.849635 0.13176455
406.844363 0.56482139
420.859641 0.005450979999999999
424.854696 0.049955889999999996
433.867443 0.01514108
447.846682 0.04324566
465.857569 0.015014270000000001
477.218966 0.03777466
491.296793 0.01858146
509.271267 0.07493229
510.274 0.00554437
578.90611 0.012558229999999998
579.907405 0.00589647
594.935523 0.11201493
595.340463 0.09437620000000001
595.385491 0.23208562
595.936221 0.053828709999999995
596.34069 0.01455856
596.384833 0.06383886999999999
596.933386 0.02441793
597.355911 0.022263030000000003
612.946468 0.01572536
END IONS

BEGIN IONS
CHARGE=1+
INCHIKEY=PQHZSWZPVGHDEZ-UIQTUGNFSA-N
INSTRUMENT_TYPE=ESI-QFT
INSTRUMENT=Thermo Q Exactive HF
COLLISION_ENERGY=35HCD
FORMULA=C21H43N5O11S
INCHI=InChI=1S/C21H41N5O7.H2O4S/c1-4-26-13-7-12(24)16(32-19-11(23)6-5-10(8-22)31-19)14(27)17(13)33-20-15(28)18(25-3)21(2,29)9-30-20;1-5(2,3)4/h5,11-20,25-29H,4,6-9,22-24H2,1-3H3;(H2,1,2,3,4)/t11-,12+,13-,14+,15-,16-,17+,18-,19-,20-,21+;/m1./s1
AUTHOR=Arpana Vaniya
SPLASH=splash10-0005-8253690000-06d8dcdf4226c19941c3
SUBMITTER=submitter = Arpana Vaniya (University of California, Davis)
SYNON_$=00in-source
COMPUTED_SMILES=O=S(=O)(O)OOC1C(OCC(O)(C)C1NC)OC2C(O)C(OC3OC(=CCC3N)CN)C(N)CC2NCC
COMPUTED_[2M+H-H2O]+=1129.528586392
COMPUTED_[2M+K]+=1185.6342563920002
COMPUTED_[M+H]+=574.2759481960001
COMPUTED_[2M+NA]+=1169.525726392
COMPUTED_[2M+CL]-=1181.988956392
COMPUTED_[2M+HAC-H]-=1205.5799863920001
COMPUTED_[M-H20-H]-=554.2495881960001
COMPUTED_[M-H]-=572.260702196
COMPUTED_[2M-H]-=1145.528680392
COMPUTED_[M+NA]+=596.2577481960001
COMPUTED_[M+H-H2O]+=556.260608196
COMPUTED_[2M+NH4]+=1164.574536392
COMPUTED_[M+CL]-=608.720978196
COMPUTED_[M+NH4]+=591.3065581960001
COMPUTED_[M+K]+=612.366278196
COMPUTED_[2M+H]+=1147.543926392
COMPUTED_[M+HAC-H]-=632.3120081960001
RAW_FILENAME=NP_UC_2789_p10_E10_4.raw
AVERAGED_SCANS=15
SOURCE_INTRODUCTION=direct injection
COMPUTED_SPECTRAL_ENTROPY=4.37777425918457
COMPUTED_NORMALIZED_ENTROPY=0.7186917664565353
COMPUTED_MASS_ACCURACY=0.9157919780458268
COMPUTED_MASS_ERROR=-5.46047562579588E-4
MONA_RATING=4.615384615384616
NUM_PEAKS=500
COMPOUND_NAME=NETILMICIN SULFATE
SPECTRUM_ID=VF-NPL-QEHF028237
ADDUCT=[M+Na]+
MS_LEVEL=MS2
PRECURSOR_MZ=596.2572021484375
IONMODE=positive
NOMINAL_MASS=573
PARENT_MASS=573.2679781960001
SMILES=CCN[C@@H]1C[C@H](N)[C@@H](O[C@H]2OC(CN)=CC[C@H]2N)[C@H](O)[C@H]1O[C@H]1OC[C@](C)(O)[C@H](NC)[C@H]1O.O=S(=O)(O)O
SALT_IONS=
55.054515 0.01834794
57.070126 0.20577686
61.010795 0.0127238
67.054346 0.07055775
69.06995 0.048851069999999996
71.085584 0.13940854
73.04682 0.2647129
73.064793 0.01695219
74.096461 0.012776510000000001
79.021165 0.14145927
81.069893 0.05168247
83.08552 0.04690276
85.10115 0.08201009000000001
87.044045 0.20213269
89.059697 0.6134861
91.057385 0.9780029899999999
92.056949 0.04096819
92.060596 0.01990743
93.054227 0.024319570000000002
95.085532 0.07776618
97.101229 0.03600061
101.059725 0.15731832
104.106903 0.022231459999999998
109.101177 0.08748945000000001
133.085854 0.23506006
135.002672 0.013784000000000001
149.044883 0.0671235
167.055324 0.28006874
194.999898 0.02120381
195.065196 0.02238296
197.974367 0.02521499
210.185248 0.12014493
212.718445 0.02598094
212.729747 0.053383839999999995
212.745193 0.12527157
212.758947 0.03371563
223.063514 0.05241031
225.042846 0.19466433
226.04236 0.01721908
229.074583 0.03938132
239.094883 0.11760715
247.085025 0.01489672
250.177847 0.02418413
255.231645 0.01697862
256.96412 0.01266391
274.974773 0.09597645
275.90192 0.027231420000000003
281.911986 0.04229546
283.891879 0.03380524
284.153091 0.11214127
285.009409 0.13487434
285.890559 0.01308071
286.010251 0.02580166
287.00641 0.03305456
288.909538 0.032451690000000005
292.903978 0.055823700000000004
292.985451 0.03882699
293.945594 0.01648353
299.061466 0.27560363
300.062321 0.052879569999999994
300.148264 0.05427261
300.909737 0.04181957
301.058639 0.03345497
302.163637 0.02537347
304.924194 0.01992478
306.919813 0.18544339999999998
310.310466 0.01329807
317.912365 0.044349639999999996
318.920294 0.09859842
320.918928 0.02062342
322.914784 0.13680645
324.930744 0.01873271
341.236215 0.026306310000000003
344.976351 0.058074089999999995
347.922425 0.02635996
349.131819 0.02146831
351.917372 0.025257309999999998
355.069953 0.031407080000000004
359.028271 0.03665106
360.838796 0.02235721
365.932774 0.05097626
367.14196 0.0136721
386.839616 0.01887836
388.833839 0.11192413999999999
404.849725 0.14244338
406.844531 0.56359216
415.858192 0.032267420000000005
418.994881 0.03278694
419.853113 0.01294055
420.992616 0.012602420000000001
424.854794 0.04338425
431.872771 0.027468509999999998
433.83385 0.01670426
433.867711 0.16203894
445.852308 0.08784760999999999
447.847099 0.35542116999999995
451.878003 0.05515568
457.177888 0.01294726
459.207309 0.01947558
460.855583 0.03113187
463.861768 0.02097282
465.857679 0.16455844
474.870743 0.042016210000000005
476.870479 0.03647514
477.218289 0.08294776000000001
478.865961 0.19634381
483.868088 0.01610333
490.885987 0.036242420000000004
492.881365 0.18268235
594.369865 0.1865501
594.514181 0.055098339999999996
594.935783 0.32211311000000004
595.341709 0.6098814
595.381677 1.0
595.487581 0.10774051
595.937115 0.18998632000000001
596.344583 0.18685696
596.389448 0.34640012
596.492901 0.03206045
596.93498 0.15212555
597.345638 0.22524605
597.434466 0.034543370000000004
597.506759 0.054008099999999996
597.934042 0.024873799999999998
598.350556 0.02246134
612.946016 0.08644531999999999
613.945831 0.03815206
614.943746 0.03255563
END IONS

BEGIN IONS
CHARGE=1-
INCHIKEY=PQHZSWZPVGHDEZ-UIQTUGNFSA-N
INSTRUMENT_TYPE=ESI-QFT
INSTRUMENT=Thermo Q Exactive HF
COLLISION_ENERGY=65HCD
FORMULA=C21H43N5O11S
INCHI=InChI=1S/C21H41N5O7.H2O4S/c1-4-26-13-7-12(24)16(32-19-11(23)6-5-10(8-22)31-19)14(27)17(13)33-20-15(28)18(25-3)21(2,29)9-30-20;1-5(2,3)4/h5,11-20,25-29H,4,6-9,22-24H2,1-3H3;(H2,1,2,3,4)/t11-,12+,13-,14+,15-,16-,17+,18-,19-,20-,21+;/m1./s1
AUTHOR=Arpana Vaniya
SPLASH=splash10-01ot-9310000000-abda54c10dfe0b9f229a
SUBMITTER=submitter = Arpana Vaniya (University of California, Davis)
SYNON_$=00in-source
COMPUTED_SMILES=O=S(=O)(O)OOC1C(OCC(O)(C)C1NC)OC2C(O)C(OC3OC(=CCC3N)CN)C(N)CC2NCC
COMPUTED_[2M+H-H2O]+=1129.528586392
COMPUTED_[2M+K]+=1185.6342563920002
COMPUTED_[M+H]+=574.2759481960001
COMPUTED_[2M+NA]+=1169.525726392
COMPUTED_[2M+CL]-=1181.988956392
COMPUTED_[2M+HAC-H]-=1205.5799863920001
COMPUTED_[M-H20-H]-=554.2495881960001
COMPUTED_[M-H]-=572.260702196
COMPUTED_[2M-H]-=1145.528680392
COMPUTED_[M+NA]+=596.2577481960001
COMPUTED_[M+H-H2O]+=556.260608196
COMPUTED_[2M+NH4]+=1164.574536392
COMPUTED_[M+CL]-=608.720978196
COMPUTED_[M+NH4]+=591.3065581960001
COMPUTED_[M+K]+=612.366278196
COMPUTED_[2M+H]+=1147.543926392
COMPUTED_[M+HAC-H]-=632.3120081960001
RAW_FILENAME=NP_UC_2789_p10_E10_9.raw
AVERAGED_SCANS=9
SOURCE_INTRODUCTION=direct injection
COMPUTED_SPECTRAL_ENTROPY=3.830672980597455
COMPUTED_NORMALIZED_ENTROPY=0.7707881060490278
COMPUTED_MASS_ACCURACY=0.03677285012614255
COMPUTED_MASS_ERROR=-2.1043656261099386E-5
MONA_RATING=4.615384615384616
NUM_PEAKS=147
COMPOUND_NAME=NETILMICIN SULFATE
SPECTRUM_ID=VF-NPL-QEHF028236
ADDUCT=[M-H]-
MS_LEVEL=MS2
PRECURSOR_MZ=572.2606811523438
IONMODE=negative
NOMINAL_MASS=573
PARENT_MASS=573.2679781960001
SMILES=CCN[C@@H]1C[C@H](N)[C@@H](O[C@H]2OC(CN)=CC[C@H]2N)[C@H](O)[C@H]1O[C@H]1OC[C@](C)(O)[C@H](NC)[C@H]1O.O=S(=O)(O)O
SALT_IONS=
50.331787 0.01972589
51.468356 0.021679669999999998
51.578964 0.0163752
52.912806 0.01785964
55.948397 0.0173951
56.587252 0.014520120000000001
56.704508 0.0200956
57.511137 0.01519542
58.559626 0.015015309999999999
59.012432 0.32002477
61.348733 0.01501301
61.98695 0.82442791
62.323146 0.01656508
63.632489 0.017658590000000002
63.857927 0.01584466
64.425043 0.0198975
64.715795 0.01644606
65.624775 0.01981058
69.83131 0.02068976
70.3337 0.02369814
70.696878 0.02057389
71.339515 0.0168171
72.217042 0.019495020000000002
74.293884 0.014522060000000002
77.008203 0.02181461
79.241218 0.01919746
79.956056 0.11738491
81.160921 0.01568563
81.756983 0.0178523
83.958909 0.01741232
85.050592 0.01942944
86.717797 0.023157999999999998
89.041305 0.04073907
89.613219 0.014478079999999999
89.803952 0.0159341
89.92448 0.01746785
94.979279 0.01699609
96.958712 1.0
99.924379 0.06494753
101.999176 0.01868583
102.646772 0.020900349999999998
103.956478 0.018661209999999998
104.787465 0.02050835
110.390715 0.02432731
111.727519 0.014602029999999998
112.739142 0.01450179
113.049681 0.01957412
113.438954 0.020121069999999998
115.919486 0.03760419
116.714611 0.0154515
120.90574 0.0147536
121.028561 0.018168530000000002
122.074662 0.01513802
124.167762 0.021550060000000003
125.123987 0.01521928
125.8919 0.01713316
127.887957 0.01689814
128.15928 0.022029899999999998
132.664095 0.01639245
133.483904 0.02377092
134.24737 0.01610663
135.107201 0.020133559999999998
138.94323 0.020146280000000003
138.975383 0.01576097
140.503762 0.01865766
141.069173 0.018177659999999998
142.941081 0.01928502
143.739935 0.02574168
152.837274 0.027290480000000002
153.762432 0.01924657
153.876774 0.01811283
155.311189 0.019196869999999998
157.004793 0.01596335
165.346962 0.022899319999999997
171.18809 0.01665666
177.090367 0.01473119
177.768126 0.01498229
183.011221 0.38661001
184.257232 0.01468071
192.770098 0.02416116
197.026478 0.019202669999999998
197.917827 0.022148409999999997
208.887343 0.01460984
208.975051 0.01683948
213.047778 0.0150548
213.365214 0.019274899999999998
215.875818 0.020334050000000003
219.951523 0.17167194
219.966427 0.0148732
219.97686 0.04081021
235.411372 0.01575095
237.489169 0.02143787
240.470479 0.01451641
249.523177 0.02194782
255.084271 0.02350419
258.989602 0.01804399
268.250635 0.01608222
283.561765 0.01814201
310.91747 0.02005721
311.657067 0.01826041
316.685097 0.02168253
325.620595 0.016304
349.413521 0.01476356
351.725788 0.01470623
363.736105 0.01684552
365.955007 0.01564227
379.589364 0.01637772
384.077743 0.01945173
384.389842 0.01868129
394.089356 0.015830379999999998
398.162612 0.01726687
422.466082 0.025297510000000002
424.116241 0.0156656
424.561455 0.0170383
429.514058 0.02050685
449.277457 0.01583291
451.787497 0.01939157
454.718668 0.02798963
460.670827 0.014928740000000001
480.731098 0.02554071
481.819816 0.01836706
485.497413 0.01776082
488.93056 0.01898827
493.270187 0.02486329
541.654542 0.015531660000000001
548.631329 0.02438234
559.647603 0.01854429
560.707075 0.02409802
END IONS

BEGIN IONS
CHARGE=1-
INCHIKEY=PQHZSWZPVGHDEZ-UIQTUGNFSA-N
INSTRUMENT_TYPE=ESI-QFT
INSTRUMENT=Thermo Q Exactive HF
COLLISION_ENERGY=45HCD
FORMULA=C21H43N5O11S
INCHI=InChI=1S/C21H41N5O7.H2O4S/c1-4-26-13-7-12(24)16(32-19-11(23)6-5-10(8-22)31-19)14(27)17(13)33-20-15(28)18(25-3)21(2,29)9-30-20;1-5(2,3)4/h5,11-20,25-29H,4,6-9,22-24H2,1-3H3;(H2,1,2,3,4)/t11-,12+,13-,14+,15-,16-,17+,18-,19-,20-,21+;/m1./s1
AUTHOR=Arpana Vaniya
SPLASH=splash10-03di-9262100000-5989b6629fbc79f42ed9
SUBMITTER=submitter = Arpana Vaniya (University of California, Davis)
SYNON_$=00in-source
COMPUTED_SMILES=O=S(=O)(O)OOC1C(OCC(O)(C)C1NC)OC2C(O)C(OC3OC(=CCC3N)CN)C(N)CC2NCC
COMPUTED_[2M+H-H2O]+=1129.5285863919999
COMPUTED_[2M+K]+=1185.634256392
COMPUTED_[M+H]+=574.275948196
COMPUTED_[2M+NA]+=1169.5257263919998
COMPUTED_[2M+CL]-=1181.9889563919999
COMPUTED_[2M+HAC-H]-=1205.579986392
COMPUTED_[M-H20-H]-=554.249588196
COMPUTED_[M-H]-=572.2607021959999
COMPUTED_[2M-H]-=1145.5286803919998
COMPUTED_[M+NA]+=596.257748196
COMPUTED_[M+H-H2O]+=556.2606081959999
COMPUTED_[2M+NH4]+=1164.5745363919998
COMPUTED_[M+CL]-=608.7209781959999
COMPUTED_[M+NH4]+=591.306558196
COMPUTED_[M+K]+=612.3662781959999
COMPUTED_[2M+H]+=1147.5439263919998
COMPUTED_[M+HAC-H]-=632.312008196
AVERAGED_SCANS=9
RAW_FILENAME=NP_UC_2789_p10_E10_9.raw
SOURCE_INTRODUCTION=direct injection
COMPUTED_SPECTRAL_ENTROPY=3.6832976123323413
COMPUTED_NORMALIZED_ENTROPY=0.7442869918772469
COMPUTED_MASS_ACCURACY=0.03677284992747988
COMPUTED_MASS_ERROR=-2.104365614741255E-5
MONA_RATING=4.615384615384616
NUM_PEAKS=146
COMPOUND_NAME=NETILMICIN SULFATE
SPECTRUM_ID=VF-NPL-QEHF028235
ADDUCT=[M-H]-
MS_LEVEL=MS2
PRECURSOR_MZ=572.2606811523438
IONMODE=negative
NOMINAL_MASS=573
PARENT_MASS=573.267978196
SMILES=CCN[C@@H]1C[C@H](N)[C@@H](O[C@H]2OC(CN)=CC[C@H]2N)[C@H](O)[C@H]1O[C@H]1OC[C@](C)(O)[C@H](NC)[C@H]1O.O=S(=O)(O)O
SALT_IONS=
51.68007 0.01538197
52.574779 0.01283948
52.646897 0.01508294
53.144012 0.01777732
53.150605 0.018165340000000002
54.063672 0.01755641
55.345834 0.01670724
55.709251 0.01258899
59.012406 0.22042624
59.183739 0.01523085
59.327482 0.01968288
61.986928 0.5588940099999999
63.838281 0.01352564
64.455015 0.01403603
67.62234 0.01434109
70.29126 0.0138107
74.967524 0.01355399
75.171897 0.01286295
75.94908 0.01286209
76.453938 0.01239126
76.99055 0.012684260000000001
79.405423 0.01850937
81.04854 0.01380576
81.321113 0.014772289999999999
81.354887 0.013190390000000001
85.405832 0.0122294
88.090528 0.01345097
88.970633 0.015521990000000001
89.023314 0.01253645
89.041351 0.03383166
89.80098 0.01644104
91.132215 0.012999050000000002
92.691821 0.01250818
96.958676 0.49413578999999996
98.227175 0.022486600000000002
98.48115 0.013464789999999999
99.924028 0.01390045
102.295418 0.013093649999999998
105.325862 0.01261014
107.824727 0.01839261
109.502946 0.014928209999999999
109.893288 0.01654168
111.281609 0.01618574
113.421083 0.012556099999999999
113.448992 0.013522570000000001
114.426898 0.01331523
115.180519 0.013574010000000001
115.919804 0.01695828
118.297755 0.01316031
120.007649 0.01669019
121.028384 0.0134591
121.205462 0.013596950000000002
125.096096 0.030207389999999997
125.978719 0.01832717
131.21154 0.01546438
131.273635 0.01689338
132.029616 0.01275851
132.888088 0.01269939
145.923658 0.029774409999999998
152.20289 0.0162663
152.706823 0.018475790000000002
161.661873 0.01461054
162.272692 0.0161753
166.142766 0.01223157
166.979664 0.01300147
175.848338 0.02047278
179.356417 0.01226909
186.585886 0.012669399999999999
189.309262 0.013498749999999999
190.998689 0.01514942
197.580339 0.01822658
200.018514 0.01452234
202.032216 0.01484674
203.281543 0.013943289999999999
208.044944 0.01305908
209.676959 0.0180491
210.879385 0.013862220000000001
212.881505 1.0
216.999324 0.014292720000000002
220.706141 0.01772085
231.759211 0.01415262
233.153863 0.01287943
236.104465 0.01262548
244.348755 0.01593681
246.04118 0.0130573
253.98815 0.017193899999999998
254.858439 0.01438987
255.232792 0.01977376
275.224222 0.01265984
278.085043 0.013464529999999999
278.753939 0.02088457
280.651826 0.012419359999999999
294.431761 0.01697652
296.457173 0.01636701
299.108566 0.01508108
304.202722 0.01784777
309.248944 0.012601039999999999
311.167733 0.03673163
319.218114 0.02140714
321.795723 0.013347230000000002
325.184275 0.37428932000000004
355.229321 0.01882213
363.855139 0.01418365
378.545683 0.013136680000000001
381.672427 0.013650770000000001
396.367608 0.02103424
404.537387 0.01232745
405.955595 0.01371254
425.131786 0.013900319999999999
425.980739 0.01610018
427.347426 0.016852100000000002
433.508333 0.016701189999999998
435.575202 0.01529644
438.873428 0.01275158
446.539337 0.01320054
448.213779 0.017829479999999998
456.328564 0.01793581
464.38154 0.0125997
471.963306 0.013098939999999998
478.555215 0.01633152
480.887705 0.017877380000000002
484.894507 0.01282973
506.275927 0.01652792
523.859573 0.01437811
590.193799 0.014805200000000001
590.352174 0.01264788
594.360829 0.014820400000000001
603.702909 0.01628595
END IONS

BEGIN IONS
CHARGE=1-
INCHIKEY=PQHZSWZPVGHDEZ-UIQTUGNFSA-N
INSTRUMENT_TYPE=ESI-QFT
INSTRUMENT=Thermo Q Exactive HF
COLLISION_ENERGY=35HCD
FORMULA=C21H43N5O11S
INCHI=InChI=1S/C21H41N5O7.H2O4S/c1-4-26-13-7-12(24)16(32-19-11(23)6-5-10(8-22)31-19)14(27)17(13)33-20-15(28)18(25-3)21(2,29)9-30-20;1-5(2,3)4/h5,11-20,25-29H,4,6-9,22-24H2,1-3H3;(H2,1,2,3,4)/t11-,12+,13-,14+,15-,16-,17+,18-,19-,20-,21+;/m1./s1
AUTHOR=Arpana Vaniya
SPLASH=splash10-03di-8293020000-5cdfc531e19df0f4c0cc
SUBMITTER=submitter = Arpana Vaniya (University of California, Davis)
SYNON_$=00in-source
COMPUTED_SMILES=O=S(=O)(O)OOC1C(OCC(O)(C)C1NC)OC2C(O)C(OC3OC(=CCC3N)CN)C(N)CC2NCC
COMPUTED_[2M+H-H2O]+=1129.528586392
COMPUTED_[2M+K]+=1185.6342563920002
COMPUTED_[M+H]+=574.2759481960001
COMPUTED_[2M+NA]+=1169.525726392
COMPUTED_[2M+CL]-=1181.988956392
COMPUTED_[2M+HAC-H]-=1205.5799863920001
COMPUTED_[M-H20-H]-=554.2495881960001
COMPUTED_[M-H]-=572.260702196
COMPUTED_[2M-H]-=1145.528680392
COMPUTED_[M+NA]+=596.2577481960001
COMPUTED_[M+H-H2O]+=556.260608196
COMPUTED_[2M+NH4]+=1164.574536392
COMPUTED_[M+CL]-=608.720978196
COMPUTED_[M+NH4]+=591.3065581960001
COMPUTED_[M+K]+=612.366278196
COMPUTED_[2M+H]+=1147.543926392
COMPUTED_[M+HAC-H]-=632.3120081960001
RAW_FILENAME=NP_UC_2789_p10_E10_9.raw
AVERAGED_SCANS=9
SOURCE_INTRODUCTION=direct injection
COMPUTED_SPECTRAL_ENTROPY=3.620154866924894
COMPUTED_NORMALIZED_ENTROPY=0.7115648782618164
COMPUTED_MASS_ACCURACY=0.03677285012614255
COMPUTED_MASS_ERROR=-2.1043656261099386E-5
MONA_RATING=4.615384615384616
NUM_PEAKS=172
COMPOUND_NAME=NETILMICIN SULFATE
SPECTRUM_ID=VF-NPL-QEHF028234
ADDUCT=[M-H]-
MS_LEVEL=MS2
PRECURSOR_MZ=572.2606811523438
IONMODE=negative
NOMINAL_MASS=573
PARENT_MASS=573.2679781960001
SMILES=CCN[C@@H]1C[C@H](N)[C@@H](O[C@H]2OC(CN)=CC[C@H]2N)[C@H](O)[C@H]1O[C@H]1OC[C@](C)(O)[C@H](NC)[C@H]1O.O=S(=O)(O)O
SALT_IONS=
53.455837 0.015599110000000001
53.647651 0.01633354
54.406368 0.01405663
56.200935 0.01458845
57.53708 0.014871639999999998
57.918835 0.0170532
58.292652 0.01546024
58.593962 0.01624042
59.012417 0.3910989
60.131372 0.020210020000000002
61.19633 0.0153277
61.95079 0.01765721
61.986943 0.9799514600000001
62.201273 0.01634256
62.66037 0.01679497
63.615951 0.013827959999999999
64.164278 0.014567440000000001
65.774252 0.01534467
66.133428 0.01546519
66.692451 0.01599334
66.915205 0.01601378
67.308709 0.01518101
67.369113 0.01708871
67.857573 0.015607059999999999
70.556824 0.01459717
72.647899 0.01534753
73.281897 0.01780655
75.917406 0.01604371
76.114626 0.0168008
76.351308 0.01376902
78.691111 0.01648715
83.048797 0.03489432
88.328878 0.01475485
89.023024 0.16555806
89.041446 0.10983992000000001
89.651089 0.015227580000000001
90.932001 0.01604906
91.378302 0.01525605
94.43392 0.013859950000000001
95.793539 0.015445210000000001
96.53788 0.01604843
96.958746 0.22629366999999997
105.450351 0.013915420000000001
106.927293 0.01553349
107.176916 0.01500955
108.164792 0.01435556
112.776488 0.0183882
115.426726 0.01699889
121.018948 0.018465620000000002
121.028154 0.26138451
121.947376 0.01409661
125.095996 0.16662738000000002
130.367136 0.01553772
137.999199 0.01457303
139.388088 0.01625078
147.055711 0.01720116
157.7866 0.01569058
161.870303 0.01556967
164.970163 0.013772109999999999
165.385322 0.016397
167.988227 0.01644988
171.101669 0.06108846
175.313862 0.01562185
187.096813 0.062474
192.300791 0.0172696
200.028324 0.01626393
201.009062 0.01598828
205.962476 0.02451132
207.083331 0.01728979
212.858649 0.01430645
212.872476 0.49559596
212.885638 1.0
212.897846 0.46575257999999997
217.002279 0.04430966
221.153665 0.02271335
223.027878 0.1314575
227.969444 0.013833930000000001
228.506287 0.0187791
231.852485 0.01370479
235.973001 0.01787558
236.104939 0.09621771000000001
237.571885 0.01658297
238.835576 0.01459144
255.233159 0.2676013
255.669767 0.01521634
256.237514 0.03649131
260.160982 0.01653955
265.147689 0.06584275
280.037245 0.01410107
280.252654 0.01524052
282.993469 0.019450540000000002
283.263788 0.07650379
293.178094 0.04111368
306.436502 0.01446608
311.168087 0.20772072000000003
315.586683 0.01593294
325.184043 0.73452142
326.660365 0.01459592
335.719949 0.01848381
339.200393 0.01880382
355.035493 0.022300559999999997
355.560994 0.01462132
361.247313 0.01803027
376.020592 0.01752077
376.128016 0.01374163
380.35601 0.01928082
383.081764 0.01939422
383.109261 0.02073179
399.324089 0.01558884
427.057379 0.01464847
428.765123 0.01460127
433.395811 0.01660146
437.316415 0.014953989999999999
445.083691 0.10046246
463.930048 0.01870726
488.671063 0.01660072
529.901406 0.01726039
536.332414 0.01805919
537.368442 0.01700011
541.504754 0.01577638
571.351418 0.5245765
572.35152 0.052915859999999995
572.431623 0.05517535
573.335486 0.034148109999999995
587.279124 0.016029599999999998
597.499266 0.0160439
599.869255 0.01495578
602.270971 0.0147189
END IONS

BEGIN IONS
CHARGE=1+
INCHIKEY=PQHZSWZPVGHDEZ-UIQTUGNFSA-N
INSTRUMENT_TYPE=ESI-QFT
INSTRUMENT=Thermo Q Exactive HF
COLLISION_ENERGY=65HCD
FORMULA=C21H43N5O11S
INCHI=InChI=1S/C21H41N5O7.H2O4S/c1-4-26-13-7-12(24)16(32-19-11(23)6-5-10(8-22)31-19)14(27)17(13)33-20-15(28)18(25-3)21(2,29)9-30-20;1-5(2,3)4/h5,11-20,25-29H,4,6-9,22-24H2,1-3H3;(H2,1,2,3,4)/t11-,12+,13-,14+,15-,16-,17+,18-,19-,20-,21+;/m1./s1
AUTHOR=Arpana Vaniya
SPLASH=splash10-0006-9320000000-d4bbe168977a9885f9fe
SUBMITTER=submitter = Arpana Vaniya (University of California, Davis)
SYNON_$=00in-source
COMPUTED_SMILES=O=S(=O)(O)OOC1C(OCC(O)(C)C1NC)OC2C(O)C(OC3OC(=CCC3N)CN)C(N)CC2NCC
COMPUTED_[2M+H-H2O]+=1129.5285863919999
COMPUTED_[2M+K]+=1185.634256392
COMPUTED_[M+H]+=574.275948196
COMPUTED_[2M+NA]+=1169.5257263919998
COMPUTED_[2M+CL]-=1181.9889563919999
COMPUTED_[2M+HAC-H]-=1205.579986392
COMPUTED_[M-H20-H]-=554.249588196
COMPUTED_[M-H]-=572.2607021959999
COMPUTED_[2M-H]-=1145.5286803919998
COMPUTED_[M+NA]+=596.257748196
COMPUTED_[M+H-H2O]+=556.2606081959999
COMPUTED_[2M+NH4]+=1164.5745363919998
COMPUTED_[M+CL]-=608.7209781959999
COMPUTED_[M+NH4]+=591.306558196
COMPUTED_[M+K]+=612.3662781959999
COMPUTED_[2M+H]+=1147.5439263919998
COMPUTED_[M+HAC-H]-=632.312008196
RAW_FILENAME=NP_UC_2789_p10_E10_2.raw
AVERAGED_SCANS=14
SOURCE_INTRODUCTION=direct injection
COMPUTED_SPECTRAL_ENTROPY=3.9193640932254983
COMPUTED_NORMALIZED_ENTROPY=0.6916817791797981
COMPUTED_MASS_ACCURACY=1.1834765480242504
COMPUTED_MASS_ERROR=-6.796413124448009E-4
MONA_RATING=4.583333333333334
NUM_PEAKS=329
COMPOUND_NAME=NETILMICIN SULFATE
SPECTRUM_ID=VF-NPL-QEHF028233
ADDUCT=[M+H]+
MS_LEVEL=MS2
PRECURSOR_MZ=574.2752685546875
IONMODE=positive
NOMINAL_MASS=573
PARENT_MASS=573.267978196
SMILES=CCN[C@@H]1C[C@H](N)[C@@H](O[C@H]2OC(CN)=CC[C@H]2N)[C@H](O)[C@H]1O[C@H]1OC[C@](C)(O)[C@H](NC)[C@H]1O.O=S(=O)(O)O
SALT_IONS=
51.940292 0.03228954
55.054498 0.0899469
55.934578 0.00501261
56.965031 0.36311003999999997
57.070115 0.16686005999999998
57.935036 0.02271097
58.065324 0.06111283
59.049375 0.01099453
61.010766 0.10483983000000001
62.981861 0.00990413
62.989867 0.0115014
63.997835 0.0070934200000000005
67.054291 0.12967274
69.069906 0.03470072
70.065208 0.00583002
71.085564 0.0198874
72.080754 0.00298652
73.046794 0.20937032
79.021081 0.15465874
79.054156 0.011322140000000001
79.408471 0.00227015
81.000169 0.02643637
81.069851 0.06024694
83.08545 0.01243847
84.959717 0.0048704199999999994
86.096318 0.012214419999999998
87.044107 0.01375386
89.059532 0.00474045
90.947645 0.00959898
91.054379 0.04756956
91.057329 1.0
91.062362 0.00230599
92.056861 0.02859413
92.060598 0.01287963
93.036591 0.011438410000000001
93.054215 0.016667909999999998
93.069798 0.024246900000000002
95.049283 0.0023602899999999997
95.085447 0.04843151
98.071044 0.00324208
98.975283 0.08208748999999999
100.111984 0.17011261
101.225678 0.00223349
102.948064 0.008742370000000001
105.069712 0.00656906
107.085527 0.00237055
109.067867 0.00228542
109.101076 0.01121536
116.985742 0.14207123
121.064437 0.00232628
131.000253 0.0092234
134.996382 0.16238109
137.012051 0.0025373699999999997
146.97415 0.04571272
147.015184 0.00246624
149.01126 0.01283588
149.044742 0.01730995
152.951479 0.010916889999999999
153.007136 0.01031353
153.959015 0.046957389999999995
153.965982 0.00281044
154.086329 0.00230959
155.961313 0.00452604
157.737574 0.00231993
165.025356 0.08978349
167.004435 0.0127354
167.055144 0.11881062999999999
168.983729 0.041394799999999995
174.005926 0.00634193
174.990032 0.004556950000000001
179.022291 0.00944191
180.888345 0.00301562
183.03582 0.03647752
185.94896 0.0090301
186.994241 0.02218817
189.005749 0.00258819
190.953657 0.02450733
190.962423 0.00268053
191.880562 0.002601
206.925998 0.00537874
208.883669 0.00851772
209.891372 0.01474124
210.921556 0.00227725
215.022246 0.00228831
219.745053 0.0033935199999999997
219.757682 0.01382269
219.765295 0.01668026
219.774835 0.010743419999999998
219.779156 0.01168506
220.902369 0.00473443
222.89854 0.16666562
223.01298 0.0080861
224.991831 0.03025686
225.042618 0.02124509
227.021899 0.01578093
227.93433 0.00495401
229.895981 0.023784819999999998
232.964449 0.00242509
238.913464 0.0262082
239.043967 0.01566721
240.909084 0.29304239
241.023642 0.00443197
241.910251 0.00439142
243.002625 0.05536207
247.906481 0.0320003
250.89368 0.01689521
264.908862 0.01225628
281.911705 0.02314399
282.137039 0.00662377
282.979358 0.01631349
286.054946 0.00239257
299.010835 0.08820513999999999
300.01074 0.0024107300000000003
300.147324 0.00473275
312.838383 0.00539893
317.021383 0.08033991
327.827298 0.0023911699999999998
338.987167 0.00549384
340.967127 0.00549717
341.238166 0.00243318
344.829166 0.0068712899999999995
347.00378 0.00226719
356.997637 0.03145255
358.977203 0.01511751
360.956395 0.0030928299999999995
427.167333 0.00228809
501.837413 0.00225579
502.204661 0.00223692
END IONS

BEGIN IONS
CHARGE=1+
INCHIKEY=PQHZSWZPVGHDEZ-UIQTUGNFSA-N
INSTRUMENT_TYPE=ESI-QFT
INSTRUMENT=Thermo Q Exactive HF
COLLISION_ENERGY=45HCD
FORMULA=C21H43N5O11S
INCHI=InChI=1S/C21H41N5O7.H2O4S/c1-4-26-13-7-12(24)16(32-19-11(23)6-5-10(8-22)31-19)14(27)17(13)33-20-15(28)18(25-3)21(2,29)9-30-20;1-5(2,3)4/h5,11-20,25-29H,4,6-9,22-24H2,1-3H3;(H2,1,2,3,4)/t11-,12+,13-,14+,15-,16-,17+,18-,19-,20-,21+;/m1./s1
AUTHOR=Arpana Vaniya
SPLASH=splash10-004l-9331070000-94ef4c901cbaa0f0789a
SUBMITTER=submitter = Arpana Vaniya (University of California, Davis)
SYNON_$=00in-source
COMPUTED_SMILES=O=S(=O)(O)OOC1C(OCC(O)(C)C1NC)OC2C(O)C(OC3OC(=CCC3N)CN)C(N)CC2NCC
COMPUTED_[2M+H-H2O]+=1129.528586392
COMPUTED_[2M+K]+=1185.6342563920002
COMPUTED_[M+H]+=574.2759481960001
COMPUTED_[2M+NA]+=1169.525726392
COMPUTED_[2M+CL]-=1181.988956392
COMPUTED_[2M+HAC-H]-=1205.5799863920001
COMPUTED_[M-H20-H]-=554.2495881960001
COMPUTED_[M-H]-=572.260702196
COMPUTED_[2M-H]-=1145.528680392
COMPUTED_[M+NA]+=596.2577481960001
COMPUTED_[M+H-H2O]+=556.260608196
COMPUTED_[2M+NH4]+=1164.574536392
COMPUTED_[M+CL]-=608.720978196
COMPUTED_[M+NH4]+=591.3065581960001
COMPUTED_[M+K]+=612.366278196
COMPUTED_[2M+H]+=1147.543926392
COMPUTED_[M+HAC-H]-=632.3120081960001
RAW_FILENAME=NP_UC_2789_p10_E10_2.raw
AVERAGED_SCANS=14
SOURCE_INTRODUCTION=direct injection
COMPUTED_SPECTRAL_ENTROPY=3.6908905481912426
COMPUTED_NORMALIZED_ENTROPY=0.6374638925399164
COMPUTED_MASS_ACCURACY=1.1834765482222163
COMPUTED_MASS_ERROR=-6.796413125584877E-4
MONA_RATING=4.583333333333334
NUM_PEAKS=357
COMPOUND_NAME=NETILMICIN SULFATE
SPECTRUM_ID=VF-NPL-QEHF028232
ADDUCT=[M+H]+
MS_LEVEL=MS2
PRECURSOR_MZ=574.2752685546875
IONMODE=positive
NOMINAL_MASS=573
PARENT_MASS=573.2679781960001
SMILES=CCN[C@@H]1C[C@H](N)[C@@H](O[C@H]2OC(CN)=CC[C@H]2N)[C@H](O)[C@H]1O[C@H]1OC[C@](C)(O)[C@H](NC)[C@H]1O.O=S(=O)(O)O
SALT_IONS=
55.054499 0.018956459999999998
56.965043 0.007772670000000001
57.070136 0.11518679999999999
58.065358 0.012388380000000001
59.0493 0.00843964
61.010809 0.023708450000000002
62.981876 0.00537112
67.05429 0.06038759
69.069923 0.027007780000000002
71.085541 0.03557793
73.04678 0.16164509999999999
79.021151 0.09510724
79.054258 0.00259718
81.069826 0.04507167
83.08553 0.01553516
85.064663 0.00207938
85.101204 0.0070068299999999995
86.096369 0.013334440000000001
87.044111 0.03120944
89.059628 0.060838609999999994
91.054149 0.016935119999999998
91.057314 0.65424097
92.056879 0.02729832
92.060547 0.00975056
93.036525 0.00460816
93.05414 0.007764450000000001
93.069872 0.00442391
95.085443 0.037624689999999995
97.101021 0.00608892
98.975304 0.00910152
100.112034 0.18086939999999999
104.99232 0.00452403
107.085449 0.0046077800000000006
109.101079 0.05037479
110.10434 0.00176716
116.985675 0.01571955
121.064828 0.00934609
134.996445 0.01895359
149.044891 0.03922622
151.060445 0.00406864
152.951183 0.00463487
153.959089 0.00692741
163.027302 0.0024773300000000002
164.987919 0.00363526
165.025112 0.00402897
167.055335 0.14875062
173.010548 0.0026663999999999998
174.990164 0.00924325
176.987804 0.006489279999999999
179.022381 0.03507651
182.1175 0.006410130000000001
185.010743 0.00162775
189.005504 0.01328284
194.99977 0.0015840799999999999
197.032369 0.00158467
199.132425 0.0018237400000000001
203.021365 0.0029913099999999996
210.148396 0.0029448800000000004
212.719992 0.08996703
219.17426 0.01079501
221.033622 0.0017342199999999999
222.898536 0.01310273
224.164332 0.0056625
225.043001 0.03072844
229.074288 0.0025833899999999996
229.896125 0.02471518
232.963917 0.00288659
234.899057 0.011849670000000001
239.044176 0.012576780000000001
239.095891 0.00180098
240.909187 0.03053912
247.906618 0.015024299999999999
255.231777 0.00936023
256.964519 0.00518805
258.997109 0.0067287399999999995
260.958824 0.00574913
263.080826 0.00164145
263.900887 0.0026720500000000005
264.909268 0.05316045
269.246687 0.00165991
274.892352 0.0018054899999999999
274.974745 0.03728692
276.909789 0.02078888
277.008347 0.00158276
279.896194 0.00305279
279.916379 0.0020954999999999997
281.911759 0.04505503
282.919427 0.01692045
283.263153 0.01531888
284.153254 0.02612138
286.1861 0.0031731100000000003
288.909222 0.00235824
292.985225 0.00711457
295.052601 0.00345839
299.010904 0.020430990000000003
300.147863 0.00665602
302.163975 0.0032965299999999998
306.919564 0.02345405
313.062953 0.00530206
313.204814 0.00302966
317.021323 0.00550844
322.914245 0.00443156
336.838645 0.0031150899999999996
341.236311 0.0035284300000000004
347.82352 0.0015975800000000001
355.018465 0.01037614
360.838802 0.04339152
369.072002 0.00164219
373.029752 0.02787335
378.849858 0.00500768
390.728976 0.00160878
391.144956 0.00285994
393.192099 0.0015893699999999999
394.298177 0.00186557
406.84434 0.00682691
429.038084 0.0369461
447.045614 0.0020646600000000003
496.640781 0.0016447800000000002
503.054982 0.0058968200000000005
512.396864 0.00246451
513.374124 0.01004947
573.392524 0.021156229999999998
573.435518 0.1210507
574.394759 0.00160037
574.436937 0.040861520000000005
575.412394 1.0
575.46518 0.01345493
576.415938 0.19733198999999998
END IONS

BEGIN IONS
CHARGE=1+
INCHIKEY=PQHZSWZPVGHDEZ-UIQTUGNFSA-N
INSTRUMENT_TYPE=ESI-QFT
INSTRUMENT=Thermo Q Exactive HF
COLLISION_ENERGY=35HCD
FORMULA=C21H43N5O11S
INCHI=InChI=1S/C21H41N5O7.H2O4S/c1-4-26-13-7-12(24)16(32-19-11(23)6-5-10(8-22)31-19)14(27)17(13)33-20-15(28)18(25-3)21(2,29)9-30-20;1-5(2,3)4/h5,11-20,25-29H,4,6-9,22-24H2,1-3H3;(H2,1,2,3,4)/t11-,12+,13-,14+,15-,16-,17+,18-,19-,20-,21+;/m1./s1
AUTHOR=Arpana Vaniya
SPLASH=splash10-004i-4110090000-6000f000e8eaace05e6a
SUBMITTER=submitter = Arpana Vaniya (University of California, Davis)
SYNON_$=00in-source
COMPUTED_SMILES=O=S(=O)(O)OOC1C(OCC(O)(C)C1NC)OC2C(O)C(OC3OC(=CCC3N)CN)C(N)CC2NCC
COMPUTED_[2M+H-H2O]+=1129.528586392
COMPUTED_[2M+K]+=1185.6342563920002
COMPUTED_[M+H]+=574.2759481960001
COMPUTED_[2M+NA]+=1169.525726392
COMPUTED_[2M+CL]-=1181.988956392
COMPUTED_[2M+HAC-H]-=1205.5799863920001
COMPUTED_[M-H20-H]-=554.2495881960001
COMPUTED_[M-H]-=572.260702196
COMPUTED_[2M-H]-=1145.528680392
COMPUTED_[M+NA]+=596.2577481960001
COMPUTED_[M+H-H2O]+=556.260608196
COMPUTED_[2M+NH4]+=1164.574536392
COMPUTED_[M+CL]-=608.720978196
COMPUTED_[M+NH4]+=591.3065581960001
COMPUTED_[M+K]+=612.366278196
COMPUTED_[2M+H]+=1147.543926392
COMPUTED_[M+HAC-H]-=632.3120081960001
RAW_FILENAME=NP_UC_2789_p10_E10_2.raw
AVERAGED_SCANS=14
SOURCE_INTRODUCTION=direct injection
COMPUTED_SPECTRAL_ENTROPY=3.366872678638835
COMPUTED_NORMALIZED_ENTROPY=0.5714657161206056
COMPUTED_MASS_ACCURACY=1.1834765482222163
COMPUTED_MASS_ERROR=-6.796413125584877E-4
MONA_RATING=4.583333333333334
NUM_PEAKS=409
COMPOUND_NAME=NETILMICIN SULFATE
SPECTRUM_ID=VF-NPL-QEHF028231
ADDUCT=[M+H]+
MS_LEVEL=MS2
PRECURSOR_MZ=574.2752685546875
IONMODE=positive
NOMINAL_MASS=573
PARENT_MASS=573.2679781960001
SMILES=CCN[C@@H]1C[C@H](N)[C@@H](O[C@H]2OC(CN)=CC[C@H]2N)[C@H](O)[C@H]1O[C@H]1OC[C@](C)(O)[C@H](NC)[C@H]1O.O=S(=O)(O)O
SALT_IONS=
55.054474 0.0036712299999999997
57.07013 0.04569787
58.06534 0.00204673
59.049363 0.00470292
61.010795 0.005061949999999999
67.054314 0.01753495
69.069945 0.01012889
71.085535 0.019791490000000002
73.046778 0.07676974
79.021159 0.04313018
81.069841 0.01630225
83.085502 0.010320359999999999
85.101168 0.0084638
86.096368 0.00601873
87.044038 0.0215841
89.059657 0.04636809
91.057322 0.32235686
92.056893 0.01486442
92.060571 0.00883708
93.036537 0.00414283
93.054265 0.00880538
93.069811 0.0014441399999999998
95.085436 0.02040515
97.101146 0.0064002899999999995
100.112032 0.09161293000000001
101.059719 0.0025722899999999996
101.115369 0.00222412
105.072946 0.00175034
107.085506 0.00228135
109.101131 0.022698740000000002
121.064835 0.00337121
121.10117 0.0020597
133.085823 0.01532232
135.002448 0.001767
149.044843 0.02219304
151.060666 0.00438909
167.055327 0.08613775
174.990002 0.00154481
176.987921 0.00317974
179.022398 0.0153762
182.117652 0.0048571199999999995
187.026878 0.0028820499999999997
189.005635 0.00246184
192.961649 0.00180012
196.95064 0.0026578
199.13296 0.00579951
203.022015 0.0021418400000000003
210.148874 0.00849818
212.703865 0.00660087
212.715629 0.022980999999999998
212.730325 0.02396079
212.742056 0.0057352
219.174328 0.00479858
224.16449 0.02499118
225.043041 0.01610236
229.896004 0.00637695
233.189843 0.00471935
239.095013 0.01706108
247.906379 0.0036297400000000002
250.177587 0.00295832
255.232015 0.00758964
256.964086 0.00279045
258.997539 0.00465896
260.959254 0.00438666
264.909406 0.02263608
269.247695 0.00283715
274.894064 0.00264839
274.974742 0.01825444
276.90987 0.00794007
277.007827 0.00332197
277.216328 0.00330598
278.924578 0.00366753
278.969185 0.0020025
281.91169 0.00437954
282.919483 0.00928396
283.263244 0.02293159
284.153425 0.012215759999999999
285.009309 0.00130802
288.05198 0.00293658
288.154202 0.00352593
288.909746 0.00201482
290.947216 0.0014353599999999999
292.98542 0.00634391
294.919529 0.0021457
295.05225 0.00147264
296.934919 0.0015678600000000001
299.061784 0.00763188
300.148147 0.00407299
302.164216 0.00231714
306.919626 0.0135765
309.942953 0.00815773
313.062739 0.0024809999999999997
316.056159 0.00135119
318.957165 0.00144739
322.914644 0.01860711
322.950687 0.0014072000000000002
324.93159 0.00244941
336.966867 0.02155782
341.236757 0.00381378
359.205194 0.0015584300000000002
360.838838 0.02788123
373.03114 0.00391997
378.849421 0.00374488
405.836667 0.00586229
406.843797 0.00414806
419.212944 0.00487432
420.211453 0.00412352
427.058265 0.00234664
429.037852 0.020442000000000002
430.038003 0.0016952
435.187812 0.0018565200000000002
447.049383 0.0032770100000000003
485.046295 0.01216635
499.038193 0.0028359
503.056175 0.021965469999999997
504.056254 0.00211734
512.399584 0.00226078
513.373487 0.00265706
559.064327 0.02456668
560.065466 0.00551702
572.419784 0.04671303
573.29744 0.0027255
573.393418 0.06234048
573.434292 0.1455102
574.397976 0.02090757
574.440234 0.04618105
575.412796 1.0
576.416297 0.19353663999999998
END IONS

BEGIN IONS
CHARGE=1+
INCHIKEY=CIWBSHSKHKDKBQ-JLAZNSOCSA-N
INSTRUMENT_TYPE=ESI-QFT
INSTRUMENT=Thermo Q Exactive HF
COLLISION_ENERGY=65HCD
FORMULA=C6H8O6
INCHI=InChI=1S/C6H8O6/c7-1-2(8)5-3(9)4(10)6(11)12-5/h2,5,7-10H,1H2/t2-,5+/m0/s1
AUTHOR=Arpana Vaniya
SPLASH=splash10-0uk9-6900000000-07d0a59f0514e781b09f
SUBMITTER=submitter = Arpana Vaniya (University of California, Davis)
SYNON_$=00in-source
COMPUTED_SMILES=O=C1OC(C(O)=C1O)C(O)CO
COMPUTED_[2M+H-H2O]+=335.056805952
COMPUTED_[2M+K]+=391.16247595199997
COMPUTED_[M+H]+=177.04005797599999
COMPUTED_[2M+NA]+=375.053945952
COMPUTED_[2M+CL]-=387.517175952
COMPUTED_[2M+HAC-H]-=411.108205952
COMPUTED_[M-H20-H]-=157.01369797599997
COMPUTED_[M-H]-=175.024811976
COMPUTED_[2M-H]-=351.056899952
COMPUTED_[M+NA]+=199.02185797599998
COMPUTED_[M+H-H2O]+=159.02471797599998
COMPUTED_[2M+NH4]+=370.102755952
COMPUTED_[M+CL]-=211.485087976
COMPUTED_[M+NH4]+=194.07066797599998
COMPUTED_[M+K]+=215.13038797599998
COMPUTED_[2M+H]+=353.07214595199997
COMPUTED_[M+HAC-H]-=235.07611797599998
AVERAGED_SCANS=13
RAW_FILENAME=NP_UC_2787_p10_C10_8.raw
SOURCE_INTRODUCTION=direct injection
COMPUTED_SPECTRAL_ENTROPY=3.5472390594430423
COMPUTED_NORMALIZED_ENTROPY=0.6593506950664473
COMPUTED_MASS_ACCURACY=24.554885595716083
COMPUTED_MASS_ERROR=-0.004765266039072458
MONA_RATING=4.545454545454546
NUM_PEAKS=297
COMPOUND_NAME=ASCORBIC ACID
SPECTRUM_ID=VF-NPL-QEHF028230
ADDUCT=[M+NH4]+
MS_LEVEL=MS2
PRECURSOR_MZ=194.0659027099609
IONMODE=positive
NOMINAL_MASS=176
PARENT_MASS=176.032087976
SMILES=O=C1O[C@H]([C@@H](O)CO)C(O)=C1O
51.940259 0.00234328
55.054494 0.01587552
55.934649 0.042202279999999995
56.942444 0.00695575
56.965039 0.02883473
57.935032 0.47339304
58.93287 0.051776619999999995
61.010819 0.42079377
62.014115 0.00175625
62.018646 0.05733638
63.006547 0.0035573500000000004
63.026462 0.024014820000000003
67.054284 0.02880417
69.069939 0.00660887
70.065155 0.00188327
70.957871 0.35993592
71.929318 0.0065835500000000005
71.958329 0.004924
72.937124 0.17425042000000002
72.958275 0.06296412
73.929673 0.01581958
73.956105 0.19672374999999998
73.95847 0.00272295
74.937519 0.02482935
75.935372 0.06155982
75.942992 0.00230548
75.945331 0.25897735
76.943288 0.0022611899999999997
79.021171 0.019109730000000002
79.054197 0.011491499999999998
81.069859 0.03234675
84.044363 0.007681
84.948546 0.00127969
86.952826 0.00222548
87.906404 0.00955681
87.945382 0.00146499
88.914223 0.00403491
88.936835 0.00354219
88.96839 0.049355710000000004
89.059613 0.00682543
89.939825 0.009409859999999999
90.947677 0.06386389
90.968788 0.00694151
91.054141 0.01843554
91.966642 0.02861783
93.069873 0.01398546
93.945925 0.00825032
93.955869 0.10242494
95.085482 0.03050055
98.096389 0.010540989999999998
101.008395 0.0055061400000000005
102.914602 0.06584448
102.929825 0.00599418
102.947678 0.0019363800000000001
103.91257 0.00272385
104.920388 0.0053486900000000006
104.930325 0.06439731
104.963406 0.0040577
105.069918 0.0055461700000000004
105.917016 0.01629959
105.928152 0.009558259999999999
105.955883 0.01627582
107.085456 0.00398264
117.916907 0.005011529999999999
117.955803 0.01382074
118.924821 0.02987171
119.01895 0.01712371
119.049148 0.00750347
119.085447 0.00426696
119.917268 0.00330017
120.925211 0.01968345
120.940506 0.03052648
121.923087 0.01124442
122.930908 0.02221839
122.940825 0.1813984
123.91233 0.00283004
123.938765 0.02561651
123.948699 0.006823200000000001
124.946494 0.00763261
132.936403 0.00280581
132.958157 0.26339957999999997
133.101405 0.00224945
133.948223 0.0488532
134.95865 0.12941717
134.978533 0.00391035
135.927643 0.0034151100000000003
135.949233 0.013657170000000001
135.956501 0.14157978
135.966101 0.0369292
136.93542 0.00799287
136.946757 0.00566115
136.956684 0.0023461899999999997
137.01172 0.00572591
137.927875 0.26505627
138.925903 0.02105548
138.935731 0.0792981
138.950953 0.0037914100000000003
139.933626 0.00224491
148.971694 0.11019606
149.960876 0.01475752
150.950984 0.0033234999999999996
150.968598 0.16377004
151.958952 0.02215837
151.969839 0.04358012000000001
152.9514 0.08681925
152.969068 0.1809489
153.959221 1.0
153.966719 0.14114807000000001
154.956824 0.10124873
156.946214 0.05127505
163.998745 0.0112352
165.938081 0.0047197
166.941878 0.008881130000000001
166.982503 0.01289917
167.938814 0.0018482199999999998
167.973775 0.00129135
168.936195 0.051821219999999994
169.917749 0.00711797
169.9805 0.00254811
170.961826 0.0182326
170.979593 0.00650069
177.938118 0.010601480000000002
185.949021 0.13507568
186.94684 0.10718645
194.153911 0.02437491
195.948557 0.00487719
196.16949 0.02958551
198.946653 0.0036915900000000002
END IONS
